&CONTROL
    calculation = 'bands',
    prefix = 'gan_bi',
    pseudo_dir = '/home/stevens/replication/pseudopotentials/',
    outdir = '/home/stevens/replication/outputs/bi_scf/',
    verbosity = 'high',
/
&SYSTEM
    ibrav = 0,
    nat = 6,
    ntyp = 3,
    ecutwfc = 60.0,
    ecutrho = 240.0,
    occupations = 'fixed',
    input_dft = 'PBE',
    assume_isolated = '2D',
    nbnd = 40,
/
&ELECTRONS
    conv_thr = 1.0d-9,
    diago_full_acc = .true.,
/
ATOMIC_SPECIES
    Ga  69.723  Ga_ONCV_PBE_sr.upf
    N   14.007  N_ONCV_PBE_sr.upf
    H    1.008  H_ONCV_PBE_sr.upf
CELL_PARAMETERS (angstrom)
   3.301463952   0.000000000   0.000000000
  -1.650731976   2.859151368   0.000000000
   0.000000000   0.000000000  25.000000000
ATOMIC_POSITIONS (crystal)
H                0.3333329999        0.6666669999        0.3583988248
Ga               0.3333329999        0.6666669999        0.4229213581
N                0.6666669999        0.3333329999        0.4371056826
N                0.3333329999        0.6666669999        0.5174296715
Ga               0.6666669999        0.3333329999        0.5308129754
H                0.6666669999        0.3333329999        0.5953314870
K_POINTS {crystal_b}
4
0.000000  0.000000  0.0  40
0.500000  0.000000  0.0  40
0.333333  0.333333  0.0  40
0.000000  0.000000  0.0  1
