&inputpp
   prefix = 'gan_bi',
   outdir = '/home/stevens/replication/outputs/bi_scf/',
   calculation = 'eps',
/
&energy_grid
   smeartype = 'gauss',
   intersmear = 0.1,
   intrasmear = 0.0,
   wmax = 20.0,
   wmin = 0.0,
   nw = 2000,
   shift = 0.0,
/
