&CONTROL
    calculation = 'relax',
    prefix = 'gan_bi',
    pseudo_dir = '/home/stevens/replication/pseudopotentials/',
    outdir = '/home/stevens/replication/outputs/bi_relax2/',
    tprnfor = .true.,
    tstress = .true.,
    forc_conv_thr = 1.0d-3,
    etot_conv_thr = 1.0d-5,
    nstep = 100,
    restart_mode = 'from_scratch',
    verbosity = 'default',
/
&SYSTEM
    ibrav = 0,
    nat = 6,
    ntyp = 3,
    ecutwfc = 60.0,
    ecutrho = 240.0,
    occupations = 'fixed',
    input_dft = 'PBE',
    assume_isolated = '2D',
/
&ELECTRONS
    conv_thr = 1.0d-8,
    mixing_beta = 0.3,
    electron_maxstep = 300,
    diagonalization = 'david',
/
&IONS
    ion_dynamics = 'bfgs',
    bfgs_ndim = 4,
    trust_radius_max = 0.2,
    trust_radius_ini = 0.1,
/
ATOMIC_SPECIES
    Ga  69.723  Ga_ONCV_PBE_sr.upf
    N   14.007  N_ONCV_PBE_sr.upf
    H    1.008  H_ONCV_PBE_sr.upf
CELL_PARAMETERS (angstrom)
   3.301463952   0.000000000   0.000000000
  -1.650731976   2.859151368   0.000000000
   0.000000000   0.000000000  25.000000000
ATOMIC_POSITIONS (crystal)
H                0.3333329999        0.6666669999        0.3583459674
Ga               0.3333329999        0.6666669999        0.4227899716
N                0.6666669999        0.3333329999        0.4371468145
N                0.3333329999        0.6666669999        0.5174184885
Ga               0.6666669999        0.3333329999        0.5310804040
H                0.6666669999        0.3333329999        0.5952183534
K_POINTS (automatic)
    8  8  1  0  0  0
