&CONTROL
  calculation = 'nscf'
  restart_mode = 'from_scratch'
  prefix = 'lto'
  outdir = './tmp'
  pseudo_dir = '/home/stevens/projects/replicate-1981773/pseudo'
  verbosity = 'low'
/
&SYSTEM
  ibrav = 0
  nat = 44
  ntyp = 3
  ecutwfc = 60.0  ecutrho = 480.0
  nosym = .true.  noinv = .true.
  nbnd = 264
  occupations = 'smearing'
  degauss = 0.01
/
&ELECTRONS
  conv_thr = 1.0d-7
  mixing_beta = 0.3
  diagonalization = 'david'
/
ATOMIC_SPECIES
  La  138.9055  La.upf
  O  15.999  O.upf
  Ti  47.867  Ti.upf
CELL_PARAMETERS angstrom
  5.5444604000  0.0000000000  0.0000000000
  0.0000000000  7.6898100578  -1.1590742775
  0.0000000000  0.0000000000  39.1929890100
ATOMIC_POSITIONS crystal
  La  0.3643044950  0.1476187138  0.5287670792
  La  0.8533699362  0.8538416428  0.4753385712
  La  0.3103471804  0.6483021373  0.5379865749
  La  0.2601392900  0.7729433100  0.3660436067
  La  0.2545409700  0.2788107500  0.3716036267
  La  0.7952741861  0.3488625855  0.4614194937
  La  0.7403591430  0.7229132133  0.6320296462
  La  0.7084886085  0.2284955478  0.6367224829
  Ti  0.8074477884  0.4176719211  0.5618381786
  Ti  0.7655825200  0.0306367400  0.3726894433
  Ti  0.2712522897  0.4787152997  0.6252646434
  Ti  0.8071857992  0.9206845358  0.5628604471
  Ti  0.2724320978  0.9584390545  0.6259482191
  Ti  0.7644677500  0.5263988100  0.3734345533
  Ti  0.2967231900  0.5821129600  0.4418091900
  Ti  0.2916865456  0.0775799320  0.4413537524
  O  0.5926433991  0.8782495252  0.5253759411
  O  0.0760339656  0.1264129348  0.4777286278
  O  0.7148139142  0.1774789058  0.5692176884
  O  0.9314896088  0.9758982795  0.6116479102
  O  0.0850672086  0.5923339587  0.4801636179
  O  0.1785609539  0.7290836729  0.6376556714
  O  0.4597291513  0.8782649007  0.5897266201
  O  0.0675086572  0.9199833625  0.5338516919
  O  0.5137033369  0.5009422323  0.6579302490
  O  0.0244670200  0.4750020100  0.3397070300
  O  0.0901874550  0.3796887913  0.5406939361
  O  0.4560877500  0.0281362000  0.3952737033
  O  0.3384613664  0.3270029383  0.4365433504
  O  0.5174249690  0.9870097381  0.6581333375
  O  0.9303399354  0.4435262584  0.6126687257
  O  0.6900107400  0.2729053700  0.3641821000
  O  0.9679636300  0.1031687900  0.4086070833
  O  0.5707391087  0.6201086269  0.4656736921
  O  0.8033365200  0.7761049200  0.3690516533
  O  0.9618041000  0.5090374000  0.4098285000
  O  0.0241675300  0.0336862200  0.3389505233
  O  0.8580677839  0.6759121810  0.5670154873
  O  0.4507620200  0.5621988200  0.3947334667
  O  0.5575137099  0.0826607811  0.4695436436
  O  0.6080924467  0.4037258570  0.5219781326
  O  0.2881891342  0.2187129861  0.6245377296
  O  0.2150674100  0.8253816300  0.4348343567
  O  0.4641206527  0.5066564672  0.5894017789
K_POINTS automatic
  4 3 1  0 0 0
