&DOS
  prefix = 'lto'
  outdir = './tmp'
  fildos = 'lto.dos'
  Emin = -25.0, Emax = 15.0, DeltaE = 0.05
  degauss = 0.01
  ngauss = 0
/
