&PROJWFC
  prefix = "lto"
  outdir = "./tmp"
  filpdos = "pd"
  Emin = -10.0
  Emax = 5.0
  DeltaE = 0.05
  ngauss = 0
  degauss = 0.02
/
