&CONTROL
  calculation = 'nscf'
  restart_mode = 'from_scratch'
  prefix = 'lto'
  outdir = './tmp'
  pseudo_dir = '/home/stevens/projects/replicate-1981773/pseudo'
  verbosity = 'low'
/
&SYSTEM
  ibrav = 0
  nat = 44
  ntyp = 4
  ecutwfc = 60.0  ecutrho = 480.0
  nosym = .true.  noinv = .true.
  nbnd = 264
  occupations = 'smearing'
  degauss = 0.01
/
&ELECTRONS
  conv_thr = 1.0d-7
  mixing_beta = 0.3
  diagonalization = 'david'
/
ATOMIC_SPECIES
  La  138.9055  La.upf
  O  15.999  O.upf
  Pt  195.084  Pt.upf
  Ti  47.867  Ti.upf
CELL_PARAMETERS angstrom
  5.5444604000  0.0000000000  0.0000000000
  0.0000000000  7.6898100578  -1.1590742775
  0.0000000000  0.0000000000  39.1929890100
ATOMIC_POSITIONS crystal
  La  0.3623469857  0.1462507465  0.5278370156
  La  0.8533238012  0.8526150813  0.4752143133
  La  0.3196044801  0.6496108262  0.5383053409
  La  0.2601392900  0.7729433100  0.3660436067
  La  0.2545409700  0.2788107500  0.3716036267
  La  0.7946728690  0.3486450597  0.4612865799
  La  0.7345221026  0.7209006842  0.6324534886
  La  0.7133966577  0.2268512834  0.6351580211
  Ti  0.8130797438  0.4160997496  0.5610220148
  Ti  0.7655825200  0.0306367400  0.3726894433
  Pt  0.2608478850  0.4759124805  0.6320860177
  Ti  0.8040754945  0.9207076858  0.5626985999
  Ti  0.2738140110  0.9571423669  0.6274375374
  Ti  0.7644677500  0.5263988100  0.3734345533
  Ti  0.2967231900  0.5821129600  0.4418091900
  Ti  0.2908314926  0.0774358570  0.4411215893
  O  0.5890643001  0.8799304753  0.5247319223
  O  0.0752567086  0.1257442414  0.4776295689
  O  0.7102095571  0.1773057692  0.5688968736
  O  0.9361744769  0.9699403647  0.6102660695
  O  0.0862196948  0.5921076844  0.4800396761
  O  0.1851133393  0.7364198771  0.6401576625
  O  0.4541554945  0.8915523703  0.5900794022
  O  0.0651774711  0.9165546691  0.5338319276
  O  0.5610874068  0.5004362686  0.6612395349
  O  0.0244670200  0.4750020100  0.3397070300
  O  0.0920491610  0.3824106973  0.5395891294
  O  0.4560877500  0.0281362000  0.3952737033
  O  0.3382095238  0.3268569839  0.4364259441
  O  0.5320991219  0.9872754112  0.6579868093
  O  0.9339938821  0.4430390290  0.6093533544
  O  0.6900107400  0.2729053700  0.3641821000
  O  0.9679636300  0.1031687900  0.4086070833
  O  0.5712021469  0.6194633046  0.4657145819
  O  0.8033365200  0.7761049200  0.3690516533
  O  0.9618041000  0.5090374000  0.4098285000
  O  0.0241675300  0.0336862200  0.3389505233
  O  0.8284991600  0.6729643454  0.5660248209
  O  0.4507620200  0.5621988200  0.3947334667
  O  0.5571439345  0.0823890567  0.4691680745
  O  0.6018433293  0.4016926878  0.5218161643
  O  0.2719616736  0.2198887242  0.6310422927
  O  0.2150674100  0.8253816300  0.4348343567
  O  0.4577101907  0.5238203497  0.5925226598
K_POINTS automatic
  4 3 1  0 0 0
