&PROJWFC
  prefix = 'lto'
  outdir = './tmp'
  filpdos = 'lto'
  Emin = -25.0, Emax = 15.0, DeltaE = 0.05
  degauss = 0.01
/
