&CONTROL
  calculation = 'relax'
  restart_mode = 'from_scratch'
  prefix = 'lto'
  outdir = './tmp'
  pseudo_dir = '/home/stevens/projects/replicate-1981773/pseudo'
  verbosity = 'default'
  tprnfor = .true.
  tstress = .true.
  etot_conv_thr = 1.0d-5
  forc_conv_thr = 1.0d-3
  nstep = 100
/
&SYSTEM
  ibrav = 0
  nat = 44
  ntyp = 4
  ecutwfc = 60.0
  ecutrho = 480.0
  occupations = 'smearing'
  smearing = 'gaussian'
  degauss = 0.01
  nosym = .true.
  noinv = .true.
/
&ELECTRONS
  conv_thr = 1.0d-7
  mixing_beta = 0.3
  electron_maxstep = 200
  diagonalization = 'david'
/
&IONS
  ion_dynamics = 'bfgs'
  bfgs_ndim = 3
/
ATOMIC_SPECIES
  La  138.9055  La.upf
  O  15.999  O.upf
  Pt  195.084  Pt.upf
  Ti  47.867  Ti.upf
CELL_PARAMETERS angstrom
  5.5444604000  0.0000000000  0.0000000000
  0.0000000000  7.6898100578  -1.1590742775
  0.0000000000  0.0000000000  39.1929890100
ATOMIC_POSITIONS crystal
  La  0.3463709100  0.1474079200  0.5269240133
  La  0.8463709100  0.8525920800  0.4730759867
  La  0.3013406800  0.6496314100  0.5367074967
  La  0.2601392900  0.7729433100  0.3660436067  0 0 0
  La  0.2545409700  0.2788107500  0.3716036267  0 0 0
  La  0.8013406800  0.3503685900  0.4632925033
  La  0.7545409700  0.7211892500  0.6283963733
  La  0.7601392900  0.2270566900  0.6339563933
  Ti  0.7967231900  0.4178870400  0.5581908100
  Ti  0.7655825200  0.0306367400  0.3726894433  0 0 0
  Pt  0.2644677500  0.4736011900  0.6265654467
  Ti  0.7925722100  0.9233902100  0.5594273100
  Ti  0.2655825200  0.9693632600  0.6273105567
  Ti  0.7644677500  0.5263988100  0.3734345533  0 0 0
  Ti  0.2967231900  0.5821129600  0.4418091900  0 0 0
  Ti  0.2925722100  0.0766097900  0.4405726900
  O  0.5727567000  0.8774346200  0.5232339167
  O  0.0727567000  0.1225653800  0.4767660833
  O  0.7150674100  0.1746183700  0.5651656433
  O  0.9560877500  0.9718638000  0.6047262967
  O  0.0840356000  0.5957098500  0.4798190433
  O  0.1900107400  0.7270946300  0.6358179000
  O  0.4679636300  0.8968312100  0.5913929167
  O  0.0551634700  0.9143051100  0.5306319967
  O  0.5244670200  0.5249979900  0.6602929700
  O  0.0244670200  0.4750020100  0.3397070300  0 0 0
  O  0.0716778100  0.3830563000  0.5345101500
  O  0.4560877500  0.0281362000  0.3952737033  0 0 0
  O  0.3320641800  0.3267966300  0.4359345600
  O  0.5241675300  0.9663137800  0.6610494767
  O  0.9507620200  0.4378011800  0.6052665333
  O  0.6900107400  0.2729053700  0.3641821000  0 0 0
  O  0.9679636300  0.1031687900  0.4086070833  0 0 0
  O  0.5716778100  0.6169437000  0.4654898500
  O  0.8033365200  0.7761049200  0.3690516533  0 0 0
  O  0.9618041000  0.5090374000  0.4098285000  0 0 0
  O  0.0241675300  0.0336862200  0.3389505233  0 0 0
  O  0.8320641800  0.6732033700  0.5640654400
  O  0.4507620200  0.5621988200  0.3947334667  0 0 0
  O  0.5551634700  0.0856948900  0.4693680033
  O  0.5840356000  0.4042901500  0.5201809567
  O  0.3033365200  0.2238950800  0.6309483467
  O  0.2150674100  0.8253816300  0.4348343567  0 0 0
  O  0.4618041000  0.4909626000  0.5901715000
K_POINTS automatic
  3 2 1  0 0 0
