23
Properties=species:S:1:pos:R:3 pbc="F F F"
Be       0.07743386      -0.14888688       0.00308337
Be       2.71723494       0.05826999       0.02689156
Be       1.34812587       2.24899893      -0.03733738
F        1.57582894       0.87002896       0.36192473
F       -0.16746223      -0.59413881       1.45832856
F       -0.88940313       0.14111674      -1.18514163
F       -1.00786396      -0.72367016       1.18524226
F        3.56291974       0.33984386       1.26404669
F        2.70503827      -0.22690585      -1.48353533
F        3.52378424      -0.81031811       0.95008772
F        1.02796200       3.60041194       1.34428678
F        1.09512204       2.80172945      -1.21594635
F        2.27828619       2.73410852       1.14894602
F       -2.39660443      -1.30507756       1.65739845
F        5.24591832      -1.44137333      -1.62860751
F        7.00405862      -2.35909186      -2.46467957
Li       1.32641645       0.51852278       2.58113746
Li      -1.06775200      -1.42735457       0.76205993
Li      -2.13749626      -0.10261407      -0.41954779
Li      -2.14850185      -1.51373960      -0.03401521
Li       4.39729968      -0.44208992       3.01577816
Li       3.46940519      -1.04776350      -3.79967281
H        6.06672382      -2.28913311      -2.26505597
