23
Properties=species:S:1:pos:R:3 pbc="F F F"
Be      -0.11337048       0.13708301       0.30002481
Be       2.42566513      -0.16068380       0.07985814
Be       1.34149445       2.24458834      -0.18727403
F        1.21958762       0.73828745       0.15795786
F       -0.01118221      -0.33937983       1.63653874
F       -0.99040469      -0.00448276      -1.37046806
F       -0.90907780      -0.54258757       1.04511778
F        3.53469130       0.33739554       1.13422754
F        2.67385419      -0.31319460      -1.32797714
F        3.16356250      -1.17978966       1.20607488
F        1.17701871       3.26636128       1.21752706
F        0.70081052       2.59934823      -1.13275204
F        1.79229836       3.18173788       1.29174320
F       -2.43489586      -1.28389731       1.67206124
F        5.18632655      -1.73228850      -1.47745318
F        6.88485367      -2.68810211      -2.43948740
Li       1.11184347       0.76113874       3.05895572
Li      -0.94062945      -1.33529751       1.10084852
Li      -2.02932653      -0.23421794      -0.35654604
Li      -1.90774360      -1.27497383      -0.23078114
Li       4.60649112      -0.15471044       3.17295440
Li       3.82597533      -1.00400700      -3.80213633
H        6.05392348      -2.34316719      -1.81657377
