23
Properties=species:S:1:pos:R:3 pbc="F F F"
Be       0.13592572      -0.01969266       0.00703740
Be       2.53361058      -0.07032963      -0.06600891
Be       1.35058085       2.27383712      -0.09167934
F        1.28565405       0.74496689       0.09359672
F       -0.43162317      -0.46043676       1.54741421
F       -1.13715126       0.27080977      -1.23903283
F       -0.73670235      -0.63105498       1.17619349
F        3.57251052       0.15021706       1.07364089
F        2.82018624      -0.42977048      -1.51827709
F        3.49694473      -0.75032702       0.91419873
F        1.17779657       3.47175508       1.22804385
F        1.01451722       2.53334358      -1.29507832
F        1.99678242       2.82106792       1.16207876
F       -2.92077160      -1.25650604       1.57365979
F        5.38848123      -1.38295372      -1.47608343
F        7.20957064      -2.60444258      -2.22000699
Li       1.50950283       0.65772150       3.10377046
Li      -0.99156065      -1.00409638       1.06093567
Li      -2.26933627      -0.00552965      -0.52335473
Li      -1.86052258      -1.29770103       0.10981527
Li       4.87406839      -0.13133229       3.15346974
Li       3.73238859      -1.08987148      -3.77553121
H        6.01035176      -2.37478183      -1.89799131
