23
Properties=species:S:1:pos:R:3 pbc="F F F"
Be       0.00000000       0.00000000       0.00000000
Be       2.60000000       0.00000000       0.00000000
Be       1.30000000       2.25166605       0.00000000
F        1.30000000       0.75055535       0.20000000
F       -0.15461944      -0.50948913       1.45568323
F       -1.00610039       0.09754424      -1.17505197
F       -0.86642661      -0.79234869       1.01192316
F        3.62014315       0.08234013       1.16405672
F        2.75652708      -0.47850343      -1.46595830
F        3.44858578      -0.80675691       1.01565026
F        1.09079183       3.41261177       1.00545361
F        0.88477209       2.67087588      -1.43330000
F        1.89632557       3.03379716       1.19798445
F       -2.59807621      -1.50000000       1.60000000
F        5.19807621      -1.50000000      -1.60000000
F        7.15648690      -2.63068894      -2.40384706
Li       1.30000000       0.75055535       2.89500000
Li      -0.93527429      -1.18572086       0.83690897
Li      -2.12488717      -0.21925905      -0.34511935
Li      -1.85231175      -1.49448472       0.07242342
Li       4.74108513      -0.24049793       3.12645308
Li       3.54100993      -1.14047226      -3.65552079
H        6.00228156      -2.36845336      -2.00192353
