23
Properties=species:S:1:pos:R:3 pbc="F F F"
Be      -0.02620398      -0.29042335       0.21461158
Be       2.42961100       0.10092224      -0.00879964
Be       1.40502208       2.40797027       0.11218336
F        1.16750345       0.95121669       0.22279752
F       -0.11536244      -0.56890660       1.27770258
F       -1.25040545       0.21551415      -1.00265679
F       -0.73356356      -0.98374915       0.95610640
F        3.36837597      -0.10409853       1.37129379
F        2.49781958      -0.66797355      -1.54884713
F        3.41762718      -0.79530972       1.02624598
F        0.97700548       3.31969693       1.00004523
F        0.89438315       2.88702762      -1.66457979
F        1.84933822       2.89545119       1.20026443
F       -2.60403617      -1.49518005       1.49312942
F        5.30507788      -1.52647936      -1.66006336
F        7.05416906      -2.47320276      -2.47639586
Li       1.48388579       0.79623292       2.93385067
Li      -0.68811065      -1.12056161       0.91250065
Li      -2.29868009       0.02412907      -0.18233084
Li      -1.92961025      -1.45485426      -0.19733477
Li       4.62053041      -0.18271242       3.36799258
Li       3.41769290      -1.27515479      -3.59651297
H        5.62459705      -2.37844611      -1.90207951
