23
Properties=species:S:1:pos:R:3 pbc="F F F"
Be      -0.28798146      -0.02368604       0.11423341
Be       2.41531193      -0.02197512       0.17261020
Be       1.12075211       1.97894171      -0.21547362
F        1.31007477       1.08503496       0.03716407
F       -0.33855971      -0.61316235       1.32363609
F       -0.96782044      -0.12234059      -0.94944016
F       -0.89897853      -0.86024792       0.98755839
F        3.37545079       0.07933158       1.19857428
F        2.92832747      -0.67597473      -1.25709412
F        3.32663795      -1.02147885       0.82301688
F        1.18384444       3.35649344       1.06821793
F        1.25469039       2.44883276      -1.56301363
F        2.25879461       3.04203899       1.15737843
F       -2.74355875      -1.76169429       1.21495174
F        5.17814845      -1.54718239      -1.57792474
F        7.05600749      -2.55097821      -2.55490982
Li       1.44895362       0.79987452       2.89353910
Li      -1.14449239      -1.04376131       0.91756964
Li      -1.81275995      -0.48448610      -0.29954881
Li      -1.79654314      -1.44165233      -0.01452042
Li       4.63825506      -0.59819563       2.82580476
Li       3.53703436      -1.20358457      -3.92012387
H        6.18972464      -2.42316563      -2.09022082
