23
Properties=species:S:1:pos:R:3 pbc="F F F"
Be      -0.17526681      -0.03174993      -0.03415664
Be       2.73368472      -0.14083590      -0.12363439
Be       1.24647572       2.26349476      -0.17771389
F        1.40903013       0.59678823       0.18538394
F       -0.25683261      -0.43174730       1.52397890
F       -1.12623091       0.10705067      -1.56407731
F       -0.93529127      -0.87155257       0.84096005
F        3.39833416       0.03725134       0.94172624
F        2.81112571      -0.21686834      -1.38003392
F        3.42416773      -0.92191807       0.82408264
F        1.17349188       3.63201524       1.01107460
F        0.97316398       2.33953003      -1.34723509
F        1.82394144       2.89906665       1.30876367
F       -2.68454528      -1.54637163       1.37575865
F        5.28269962      -1.47926440      -1.61239041
F        7.01413720      -2.50445703      -2.56881919
Li       1.34053819       0.67594132       2.90566582
Li      -1.10487138      -1.24198582       0.78304096
Li      -2.18751207      -0.19107592      -0.16229115
Li      -1.83147343      -1.41639120       0.41354044
Li       4.52263489      -0.48516548       3.18369241
Li       3.79080286      -1.02067755      -3.39200227
H        5.91156638      -2.17063535      -1.98261673
