23
Properties=species:S:1:pos:R:3 pbc="F F F"
Be       0.19887273       0.01249523       0.14863467
Be       2.45233307      -0.02160338      -0.13442133
Be       1.38736235       2.27516422       0.10642873
F        1.00119391       0.86160936       0.20881547
F        0.09496847      -0.50344210       1.15269327
F       -0.63642713       0.14014636      -1.05798171
F       -0.85789237      -0.79775519       1.21361751
F        3.61049217       0.16068218       1.13531905
F        2.64720349      -0.29909778      -1.38556077
F        3.34538937      -0.89310263       0.69055049
F        0.87635692       3.46357038       0.91668087
F        0.67414749       2.78554477      -1.34586258
F        1.81879548       3.20079017       1.24602892
F       -2.70708050      -1.30056225       1.56196666
F        5.15307870      -1.70868583      -1.42400215
F        7.00746622      -2.73559791      -2.48102206
Li       1.19496730       0.78369052       3.02854198
Li      -0.90732264      -1.19000365       0.83318157
Li      -2.29345400      -0.28743303      -0.34790090
Li      -1.59539178      -1.33697336       0.16678328
Li       4.77445205      -0.34161466       2.99006147
Li       3.32947795      -1.40659612      -3.70008277
H        5.78151046      -2.36729927      -1.93861554
