23
Properties=species:S:1:pos:R:3 pbc="F F F"
Be       0.09585417       0.21433545       0.18746536
Be       2.77674824      -0.08791877      -0.15594581
Be       1.43868209       2.23694659      -0.18988212
F        1.00376375       0.75881122       0.07222424
F       -0.07126681      -0.36420795       1.61219527
F       -1.01138095      -0.03288076      -1.05455956
F       -0.92079466      -0.85953175       0.89447209
F        3.64240286       0.26376919       1.23560978
F        2.73560497      -0.50431829      -1.59149595
F        3.59764917      -0.48497751       1.04302407
F        1.01038305       3.10689126       1.00282019
F        0.84381566       2.58177416      -1.31691781
F        2.05133430       3.26444651       1.12626384
F       -2.65532385      -1.30887111       1.31838862
F        5.30933372      -1.51524270      -1.64922790
F        7.13384846      -2.71299395      -2.48728641
Li       1.23853136       0.78508461       2.84566003
Li      -0.82540267      -1.08872108       0.76440999
Li      -2.15773014      -0.04069124      -0.23352653
Li      -1.79778603      -1.42056536      -0.00493716
Li       4.64082288      -0.06553958       2.87604606
Li       3.61256960      -1.13954568      -3.72259036
H        5.72603296      -2.45509807      -1.96197321
