23
Properties=species:S:1:pos:R:3 pbc="F F F"
Be       0.04934584      -0.00425273       0.05033176
Be       2.65540218       0.00126069       0.22919442
Be       1.35012181       2.20569079      -0.14640785
F        1.44135495       0.38240957       0.25110315
F       -0.24080900      -0.60244727       1.58879441
F       -0.93191079       0.03682453      -1.12379463
F       -0.95173979      -1.02722100       0.79481473
F        3.77798871      -0.15592370       1.28346777
F        2.96786872      -0.35479421      -1.45127902
F        3.36378884      -0.81029355       1.10762541
F        1.08657579       3.30381507       0.75520410
F        0.79483379       2.52303609      -1.66952609
F        2.03685154       3.03556901       1.35957325
F       -2.39266155      -1.36530170       1.64274785
F        5.23688572      -1.59187339      -1.46442676
F        7.22552353      -2.62321477      -2.55582757
Li       1.15575961       0.90748580       2.74025977
Li      -1.04598741      -1.20378890       0.84271141
Li      -2.21345578      -0.23465644      -0.35923270
Li      -1.97900093      -1.47671685       0.10314923
Li       5.09025656      -0.53062318       3.08591312
Li       3.06544931      -1.33107578      -3.66250335
H        6.07841944      -2.47936211      -2.05381569
