22
Properties=species:S:1:pos:R:3 pbc="F F F"
Be      -0.10991438      -0.02711213       0.09483934
Be       2.71905446      -0.03338963       0.18859163
Be       1.31464728       2.21094658       0.10349199
F        1.28674859       0.67961992       0.06883996
F       -0.14229807      -0.36618212       1.55220111
F       -1.27850421       0.18553639      -1.04859447
F       -0.97685158      -0.96548305       0.87823094
F        3.60855519      -0.04866844       0.99916523
F        3.02836683      -0.57324334      -1.61902059
F        3.56242409      -0.76281136       1.30857926
F        1.02172866       3.58110514       0.86497537
F        0.81524782       2.52447658      -1.39797421
F        2.17549086       2.63964383       1.11631704
F       -2.73561874      -1.50773940       1.95273342
F        5.36862702      -1.75222009      -1.44556540
F        7.17073398      -2.52428360      -2.37290703
Li       1.25730323       0.68385357       3.11043119
Li      -1.01168822      -1.02165624       1.06421282
Li      -2.01304144      -0.08723710      -0.36228298
Li      -1.98600274      -1.65474435      -0.13486273
Li       4.75236033      -0.28088093       3.24197754
Li       3.72343557      -1.09106074      -3.50759986
