22
Properties=species:S:1:pos:R:3 pbc="F F F"
Be       0.13390980      -0.06777407       0.04293578
Be       2.93100316       0.06773510      -0.13906816
Be       1.14144740       2.44271558      -0.09612379
F        1.36390631       0.71233382       0.05627275
F       -0.15132014      -0.69245743       1.59239051
F       -1.16841957       0.02442483      -1.08865298
F       -0.80379140      -0.85809108       1.07073117
F        3.66038049       0.19795206       1.12220951
F        2.81984573      -0.16302117      -1.66323386
F        3.69372182      -1.01756000       0.85435154
F        1.07023663       3.45750586       1.18396516
F        0.90940715       2.60490673      -1.56459369
F        1.73687891       3.07270363       1.11066808
F       -2.67384292      -1.50521313       1.75482834
F        5.23055882      -1.53287553      -1.65065941
F        6.98650686      -2.81220421      -2.26032714
Li       1.22143734       0.90485349       3.04116645
Li      -0.91477915      -1.28403774       1.10713982
Li      -2.25392020      -0.25258788      -0.30257429
Li      -1.66480715      -1.19086660      -0.11905144
Li       5.02392824      -0.21276316       2.95497562
Li       3.55275965      -1.21712446      -3.40147318
