22
Properties=species:S:1:pos:R:3 pbc="F F F"
Be      -0.08152832       0.00243950       0.06181344
Be       2.69211196      -0.01292096       0.18393463
Be       0.99031098       2.21052835       0.04278055
F        1.31760323       0.48676362       0.48290609
F       -0.28027828      -0.43859469       1.44907070
F       -0.76798485       0.26901633      -1.03855862
F       -1.10597133      -0.70312151       0.93236345
F        3.61214840       0.25636687       1.16821344
F        2.66599476      -0.49801708      -1.41900983
F        3.34748925      -0.84327268       1.03657937
F        1.06872375       3.62924972       0.87512100
F        0.89650245       2.71850885      -1.64244188
F        1.94375308       2.95698596       0.68660223
F       -2.51031766      -1.73852471       1.67969307
F        5.22989985      -1.70487992      -1.62197953
F        7.19792880      -2.62896946      -2.42390523
Li       1.36420515       0.60584750       3.00938725
Li      -0.83033412      -1.19834471       1.08397967
Li      -2.26661842      -0.29358372      -0.20900365
Li      -1.73752802      -1.49938356      -0.00838099
Li       4.86574070      -0.11547640       3.27825542
Li       3.62530169      -1.22122746      -3.67658289
