22
Properties=species:S:1:pos:R:3 pbc="F F F"
Be       0.23705845       0.23563376      -0.13441131
Be       2.48326903      -0.04133527       0.21356233
Be       1.18422743       2.21436102      -0.06988471
F        1.67357706       0.85282641       0.29304254
F        0.12052916      -0.59059235       1.45565522
F       -1.20610586       0.17752421      -1.17683946
F       -0.69541829      -0.60128526       1.26274391
F        3.70056862       0.12881319       1.23291601
F        2.58101451      -0.37013527      -1.64511919
F        3.55721199      -0.94933319       1.37246832
F        0.79428973       3.39140938       1.01633891
F        0.64885546       2.71285799      -1.53406874
F        1.61690764       2.90889065       1.11537576
F       -2.54491359      -1.57132397       1.60133750
F        5.24637654      -1.41801099      -1.60791485
F        7.21591010      -2.49480427      -2.21459005
Li       1.44843487       0.79079121       2.84869384
Li      -0.94663050      -1.34822205       0.65653032
Li      -2.22352474      -0.16103437      -0.28802176
Li      -1.84679445      -1.52030608       0.13693237
Li       4.97988795      -0.30953882       3.13655328
Li       3.57681465      -1.06309694      -3.77490991
