22
Properties=species:S:1:pos:R:3 pbc="F F F"
Be      -0.07348832      -0.03692651      -0.26747084
Be       2.60709639      -0.20548510      -0.04150817
Be       1.39927802       2.23764981      -0.02717452
F        1.05387748       0.60310653       0.38489165
F       -0.29236672      -0.27082234       1.27060097
F       -0.95690579      -0.16718039      -1.16114835
F       -0.93015255      -0.73856969       1.45497246
F        3.70264035       0.14125706       1.11876503
F        2.72862634      -0.46855768      -1.57448445
F        3.68743575      -0.89906620       0.97810573
F        1.10463754       3.56514560       0.86988715
F        0.64471146       2.97865504      -1.31343166
F        1.89112810       3.08344291       1.23466998
F       -2.33501031      -1.27577012       1.60704076
F        5.24585945      -1.44357370      -1.71365933
F        7.16263927      -2.84522608      -2.33248943
Li       1.12208376       0.64970138       2.74084978
Li      -1.16460913      -1.22618826       0.88300834
Li      -1.86825462      -0.10820767      -0.48697027
Li      -1.92587850      -1.60178885       0.01731745
Li       4.66243762      -0.08201824       2.99746163
Li       3.37611114      -1.17138301      -3.67083895
