22
Properties=species:S:1:pos:R:3 pbc="F F F"
Be       0.06068674      -0.08350314      -0.28223026
Be       3.07832291      -0.07503573       0.15937348
Be       1.29420928       2.28720035       0.20120191
F        1.49233099       0.90559565       0.20413390
F       -0.49255915      -0.34821732       1.80388648
F       -0.76443275      -0.00622391      -1.25675966
F       -0.77575776      -0.72473332       1.12667138
F        3.46997311       0.17123973       1.25107871
F        2.93853346      -0.35408881      -1.37146087
F        3.19110276      -0.76462750       0.80800911
F        1.20560653       3.64304714       1.18968024
F        0.51274695       2.73118742      -1.30132999
F        2.12336200       3.15984902       1.09699097
F       -2.61545042      -1.50102564       1.54308728
F        4.89424162      -1.16438685      -1.74381358
F        7.35718199      -2.57429186      -2.28896597
Li       1.31481720       0.88257410       3.04176407
Li      -0.66419598      -1.26945118       0.79471208
Li      -2.37687111      -0.09788878      -0.47144984
Li      -2.02462656      -1.53828893      -0.24264166
Li       4.88117827      -0.09355831       3.02852500
Li       3.51426161      -0.99964327      -3.61623884
