22
Properties=species:S:1:pos:R:3 pbc="F F F"
Be       0.18386522       0.11197968       0.07427946
Be       2.82756197       0.09636783      -0.15301493
Be       1.23407652       2.44849632       0.14271628
F        1.29371354       0.57462464      -0.01150671
F       -0.10186040      -0.65548909       1.54304628
F       -0.98250315      -0.00652549      -1.12275335
F       -0.89720923      -0.93152605       1.06187209
F        3.63023605       0.05894458       1.30075683
F        2.93433253      -0.77082821      -1.28609422
F        3.64166953      -1.04152704       1.08550131
F        1.30733080       3.58327000       1.11941161
F        1.24914467       2.25831808      -1.34457891
F        2.04170877       3.13413694       1.21901676
F       -2.70047283      -1.54888884       1.75850278
F        5.16077781      -1.64700870      -1.48673727
F        7.07856367      -2.72249330      -2.41938678
Li       1.24141502       0.82748781       2.93213694
Li      -1.07285242      -1.09976798       0.84737368
Li      -1.86814743      -0.16316197      -0.52484435
Li      -1.60215900      -1.67318014      -0.00833404
Li       4.65533826      -0.20485968       2.94431231
Li       3.14920228      -1.14871102      -3.35740106
