22
Properties=species:S:1:pos:R:3 pbc="F F F"
Be       0.18541401      -0.03440283       0.07519487
Be       2.62997878      -0.21410602       0.20692431
Be       1.46038080       2.15376687      -0.10166265
F        1.42517928       1.24301000       0.00067471
F       -0.31542060      -0.51833481       1.82689514
F       -0.83397967      -0.01797122      -1.29257869
F       -0.62496080      -0.70445560       0.93490485
F        3.86540087      -0.06598087       0.94873866
F        2.73226929      -0.34007678      -1.51958042
F        3.36464097      -1.00777425       0.99568344
F        1.09279363       3.51786479       1.12863965
F        0.86291463       2.79589268      -1.67721103
F        1.89840162       3.28633988       1.26032394
F       -2.81097340      -1.57903140       1.46168552
F        5.28747750      -1.69623648      -1.48704920
F        7.25103052      -2.64837013      -2.22606701
Li       1.20213706       0.55318613       3.14871856
Li      -0.71131961      -1.20151244       0.64998165
Li      -2.19395252       0.03653855      -0.48694884
Li      -1.88045999      -1.60084726       0.11290558
Li       4.88452204      -0.20002813       3.24028663
Li       3.48277192      -1.25274239      -3.75959469
