22
Properties=species:S:1:pos:R:3 pbc="F F F"
Be      -0.00879197       0.22912228      -0.05826207
Be       2.60304058       0.10396492      -0.04454125
Be       1.25261854       2.36308884      -0.06590596
F        1.27621368       0.71797153       0.11033923
F       -0.20678557      -0.55027813       1.41853880
F       -0.86669259       0.22663612      -1.15386580
F       -1.07464400      -0.75705512       1.08876757
F        3.57633028       0.03326242       1.09086275
F        3.01086885      -0.54606747      -1.39301756
F        3.56775813      -0.73117448       1.21533275
F        0.87661867       3.43746929       1.05990025
F        0.95723393       2.69359808      -1.36135152
F        1.85221921       2.90049162       0.93567093
F       -2.56140834      -1.33883072       1.48105367
F        4.90304579      -1.47983279      -1.71771574
F        7.27251485      -2.62648061      -2.28904887
Li       1.41915409       0.95909076       2.86555404
Li      -1.03728267      -1.34645694       0.99879140
Li      -2.36825982       0.00616677      -0.36596954
Li      -1.85786392      -1.71684986      -0.29682865
Li       4.61999875      -0.44601318       3.08513011
Li       3.54834604      -0.91696919      -3.70056605
