&CONTROL
  calculation = 'relax'
  restart_mode = 'from_scratch'
  prefix = 'lto'
  outdir = './tmp'
  pseudo_dir = '/home/stevens/projects/replicate-1981773/pseudo'
  verbosity = 'default'
  tprnfor = .true.
  tstress = .true.
  etot_conv_thr = 1.0d-5
  forc_conv_thr = 1.0d-3
  nstep = 100
/
&SYSTEM
  ibrav = 0
  nat = 88
  ntyp = 4
  ecutwfc = 60.0
  ecutrho = 480.0
  occupations = 'smearing'
  smearing = 'gaussian'
  degauss = 0.01
  nosym = .true.
  noinv = .true.
/
&ELECTRONS
  conv_thr = 1.0d-7
  mixing_beta = 0.3
  electron_maxstep = 200
  diagonalization = 'david'
/
&IONS
  ion_dynamics = 'bfgs'
  bfgs_ndim = 3
/
ATOMIC_SPECIES
  La  138.9055  La.upf
  O  15.999  O.upf
  Pt  195.084  Pt.upf
  Ti  47.867  Ti.upf
CELL_PARAMETERS angstrom
  5.5444604000  0.0000000000  0.0000000000
  0.0000000000  12.9184064788  -1.9471732778
  0.0000000000  0.0000000000  31.1066891600
ATOMIC_POSITIONS crystal
  La  0.6536290900  0.4192279600  0.4631480200
  La  0.1536290900  0.5807720400  0.2868519800  0 0 0
  La  0.6986593200  0.3898775100  0.3375921475  0 0 0
  La  0.7398607100  0.9018691800  0.3067641725  0 0 0
  La  0.7454590300  0.8851891200  0.4302973125  0 0 0
  La  0.1986593200  0.6101224900  0.4124078525  0 0 0
  La  0.2454590300  0.1148108800  0.3197026875  0 0 0
  La  0.2398607100  0.0981308200  0.4432358275
  Ti  0.2032768100  0.3254275700  0.3955282400
  Ti  0.2344174800  0.8819316700  0.4923408150
  Ti  0.7355322500  0.1203036600  0.3815997025  0 0 0
  Ti  0.2074277900  0.3217180700  0.2691524475  0 0 0
  Ti  0.7344174800  0.1180683300  0.2576591850  0 0 0
  Ti  0.2355322500  0.8796963400  0.3684002975  0 0 0
  Ti  0.7032768100  0.6745724300  0.3544717600  0 0 0
  Ti  0.7074277900  0.6782819300  0.4808475525
  O  0.4272433000  0.4302982500  0.2806413450  0 0 0
  O  0.9272433000  0.5697017500  0.4693586550
  O  0.2849325900  0.3045030700  0.4563454075
  O  0.0439122500  0.1858211100  0.2570340500  0 0 0
  O  0.9159644000  0.5605428700  0.3510725375  0 0 0
  O  0.8099892600  0.0925463000  0.3182263425  0 0 0
  O  0.5320363700  0.2258212500  0.2757921975  0 0 0
  O  0.9448365300  0.4081040100  0.2714237225  0 0 0
  O  0.4755329800  0.0191210900  0.3687505025  0 0 0
  O  0.9755329800  0.9808789100  0.3812494975  0 0 0
  O  0.9283221900  0.3964695500  0.4042359250
  O  0.5439122500  0.8141788900  0.4929659500
  O  0.6679358200  0.6921963200  0.4183008425  0 0 0
  O  0.4758324700  0.0168515700  0.2584215550  0 0 0
  O  0.0492379800  0.1842004000  0.3905497050
  O  0.3099892600  0.9074537000  0.4317736575  0 0 0
  O  0.0320363700  0.7741787500  0.4742078025
  O  0.4283221900  0.6035304500  0.3457640750  0 0 0
  O  0.1966634800  0.8928450400  0.3059737700  0 0 0
  O  0.0381959000  0.7705145000  0.3727406500  0 0 0
  O  0.9758324700  0.9831484300  0.4915784450
  O  0.1679358200  0.3078036800  0.3316991575  0 0 0
  O  0.5492379800  0.8157996000  0.3594502950  0 0 0
  O  0.4448365300  0.5918959900  0.4785762775
  O  0.4159644000  0.4394571300  0.3989274625  0 0 0
  O  0.6966634800  0.1071549600  0.4440262300
  O  0.7849325900  0.6954969300  0.2936545925  0 0 0
  O  0.5381959000  0.2294855000  0.3772593500  0 0 0
  La  0.6536290900  0.4192279600  0.7131480200
  La  0.1536290900  0.5807720400  0.5368519800
  La  0.6986593200  0.3898775100  0.5875921475
  La  0.7398607100  0.9018691800  0.5567641725
  La  0.7454590300  0.8851891200  0.6802973125
  La  0.1986593200  0.6101224900  0.6624078525
  La  0.2454590300  0.1148108800  0.5697026875
  La  0.2398607100  0.0981308200  0.6932358275
  Ti  0.2032768100  0.3254275700  0.6455282400
  Ti  0.2344174800  0.8819316700  0.7423408150
  Ti  0.7355322500  0.1203036600  0.6315997025
  Ti  0.2074277900  0.3217180700  0.5191524475
  Ti  0.7344174800  0.1180683300  0.5076591850
  Ti  0.2355322500  0.8796963400  0.6184002975
  Ti  0.7032768100  0.6745724300  0.6044717600
  Pt  0.7074277900  0.6782819300  0.7308475525
  O  0.4272433000  0.4302982500  0.5306413450
  O  0.9272433000  0.5697017500  0.7193586550
  O  0.2849325900  0.3045030700  0.7063454075
  O  0.0439122500  0.1858211100  0.5070340500
  O  0.9159644000  0.5605428700  0.6010725375
  O  0.8099892600  0.0925463000  0.5682263425
  O  0.5320363700  0.2258212500  0.5257921975
  O  0.9448365300  0.4081040100  0.5214237225
  O  0.4755329800  0.0191210900  0.6187505025
  O  0.9755329800  0.9808789100  0.6312494975
  O  0.9283221900  0.3964695500  0.6542359250
  O  0.5439122500  0.8141788900  0.7429659500
  O  0.6679358200  0.6921963200  0.6683008425
  O  0.4758324700  0.0168515700  0.5084215550
  O  0.0492379800  0.1842004000  0.6405497050
  O  0.3099892600  0.9074537000  0.6817736575
  O  0.0320363700  0.7741787500  0.7242078025
  O  0.4283221900  0.6035304500  0.5957640750
  O  0.1966634800  0.8928450400  0.5559737700
  O  0.0381959000  0.7705145000  0.6227406500
  O  0.9758324700  0.9831484300  0.7415784450
  O  0.1679358200  0.3078036800  0.5816991575
  O  0.5492379800  0.8157996000  0.6094502950
  O  0.4448365300  0.5918959900  0.7285762775
  O  0.4159644000  0.4394571300  0.6489274625
  O  0.6966634800  0.1071549600  0.6940262300
  O  0.7849325900  0.6954969300  0.5436545925
  O  0.5381959000  0.2294855000  0.6272593500
K_POINTS automatic
  3 2 1  0 0 0
