&CONTROL
    calculation = 'scf',
    prefix = 'gan_bi',
    pseudo_dir = '/home/stevens/replication/pseudopotentials/',
    outdir = '/home/stevens/replication/outputs/bi_scf/',
/
&SYSTEM
    ibrav = 0,
    nat = 6,
    ntyp = 3,
    ecutwfc = 60.0,
    ecutrho = 240.0,
    occupations = 'fixed',
    input_dft = 'PBE',
    assume_isolated = '2D',
    nbnd = 40,
/
&ELECTRONS
    conv_thr = 1.0d-8,
    mixing_beta = 0.3,
    electron_maxstep = 200,
/
ATOMIC_SPECIES
    Ga  69.723  Ga_ONCV_PBE_sr.upf
    N   14.007  N_ONCV_PBE_sr.upf
    H    1.008  H_ONCV_PBE_sr.upf
CELL_PARAMETERS (angstrom)
   3.321224287   0.000000000   0.000000000
  -1.660612143   2.876264322   0.000000000
   0.000000000   0.000000000  25.000000000
ATOMIC_POSITIONS (crystal)
    H   0.3333330000  0.6666670000  0.3561266123
    Ga  0.3333330000  0.6666670000  0.4212481626
    N   0.6666670000  0.3333330000  0.4356343488
    N   0.3333330000  0.6666670000  0.5188329659
    Ga  0.6666670000  0.3333330000  0.5325482118
    H   0.6666670000  0.3333330000  0.5976096986
K_POINTS (automatic)
    8  8  1  0  0  0
