&CONTROL
    calculation = 'scf',
    prefix = 'gan_mono',
    pseudo_dir = '/home/stevens/replication/pseudopotentials/',
    outdir = '/home/stevens/replication/outputs/mono_scf/',
    tprnfor = .true.,
    tstress = .true.,
/
&SYSTEM
    ibrav = 0,
    nat = 4,
    ntyp = 3,
    ecutwfc = 80.0,
    ecutrho = 320.0,
    occupations = 'fixed',
    input_dft = 'PBE',
    assume_isolated = '2D',
/
&ELECTRONS
    conv_thr = 1.0d-10,
    mixing_beta = 0.3,
    electron_maxstep = 200,
/
ATOMIC_SPECIES
    Ga  69.723  Ga_ONCV_PBE_sr.upf
    N   14.007  N_ONCV_PBE_sr.upf
    H    1.008  H_ONCV_PBE_sr.upf
CELL_PARAMETERS (angstrom)
   3.219067161   0.000000000   0.000000000
  -1.609533581   2.787793648   0.000000000
   0.000000000   0.000000000  20.000000000
ATOMIC_POSITIONS (crystal)
    Ga  0.3333330000  0.6666670000  0.4968134371
    N   0.6666670000  0.3333330000  0.5328472260
    H   0.3333330000  0.6666670000  0.4193183411
    H   0.6666670000  0.3333330000  0.5840209958
K_POINTS (automatic)
    8  8  1  0  0  0
