21
Properties=species:S:1:pos:R:3 pbc="F F F"
Be      -0.11070227      -0.05282163       0.05826280
Be       2.53776427       0.00873045      -0.22612773
Be       1.30383115       2.49338234      -0.05903351
F        1.31051095       0.63668198      -0.01211666
F       -0.19764577      -0.51506099       1.37117843
F       -1.05292393       0.23355213      -1.13196301
F       -1.00901811      -0.80230574       0.99213684
F        3.73725915       0.10465381       1.31377179
F        2.80736564      -0.60821710      -1.43980921
F        3.42742024      -0.98046930       0.90159182
F        1.49575614       3.18906378       1.09702614
F        0.72683672       2.69931355      -1.53557882
F        1.83506290       3.12037157       1.24903823
F       -2.53849256      -1.38154813       1.92504311
F        4.91978657      -1.62917120      -1.63082599
Li       1.41340216       0.85144895       3.13010594
Li      -1.02664126      -0.98020659       0.77335131
Li      -2.16773390      -0.01244153      -0.21166582
Li      -1.82546082      -1.28476870       0.17413622
Li       4.93239805      -0.33390706       2.88838941
Li       3.54369059      -1.17816086      -3.48224991
