21
Properties=species:S:1:pos:R:3 pbc="F F F"
Be      -0.26530136      -0.15191860       0.09912297
Be       2.54035994       0.04043289       0.12999602
Be       1.69206244       2.41424013      -0.07616592
F        1.21592863       0.79039079       0.25623852
F       -0.19432256      -0.70162459       1.25597197
F       -1.23017697       0.09853833      -1.16946044
F       -0.80517284      -0.82499843       1.24284727
F        3.55002822       0.05544423       0.99602601
F        2.86905267      -0.43598230      -1.43811676
F        3.30599704      -0.87798451       0.80340365
F        1.13150214       3.47285880       1.29656028
F        0.86240307       2.64439114      -1.49338228
F        1.86998911       2.74024956       1.20105374
F       -2.38429336      -1.23882976       1.83986117
F        5.10658997      -1.23108963      -1.71888895
Li       1.15911154       0.64173113       3.20673263
Li      -0.90527456      -1.26074673       0.83700770
Li      -2.16512287      -0.32274079      -0.39821571
Li      -1.76138939      -1.70617675       0.11528402
Li       4.74883466      -0.33365510       3.10317421
Li       3.54744295      -0.95449884      -3.71302090
