21
Properties=species:S:1:pos:R:3 pbc="F F F"
Be      -0.25081880      -0.04192766      -0.08381359
Be       2.67113525      -0.09937731       0.00068072
Be       1.24623727       2.40293629      -0.06676001
F        1.40258729       0.78363517       0.18081912
F       -0.26245991      -0.46379499       1.28941828
F       -0.96053541       0.11812449      -1.32574242
F       -0.87706742      -0.54548850       0.70440918
F        3.80275831       0.32124876       1.36947090
F        2.44566768      -0.50004061      -1.64673368
F        3.83069654      -0.80169832       1.11911482
F        1.25532894       3.34283584       1.13483701
F        0.89336854       2.83802866      -1.39651209
F        1.64194984       2.67791698       1.10282451
F       -2.81034525      -1.48292989       1.30270400
F        5.09401916      -1.49278798      -1.62632809
Li       1.36400817       0.68161486       2.93384921
Li      -0.78679417      -1.18579697       0.98196630
Li      -2.25903394       0.09340818      -0.30459902
Li      -2.13003398      -1.47725730       0.06824872
Li       4.70782562      -0.32092914       2.96997768
Li       3.40056428      -0.98344906      -3.55113284
