21
Properties=species:S:1:pos:R:3 pbc="F F F"
Be       0.05815436       0.28415828       0.13741036
Be       2.72799535      -0.11734049      -0.09482180
Be       1.48029060       2.12716044      -0.06505190
F        1.28477977       0.73443365       0.53869513
F       -0.24481023      -0.49369162       1.35907158
F       -0.93221988       0.22361936      -1.07824735
F       -0.58580419      -0.69219097       1.18195790
F        3.60925791       0.02508434       1.31419112
F        3.03394158      -0.62312132      -1.51400112
F        3.51134187      -0.87336788       0.92486232
F        1.09594339       3.62176421       0.95588688
F        1.15995573       2.65634216      -1.37710380
F        2.01212771       3.04726399       1.09645475
F       -2.55760053      -1.51099491       1.69870319
F        5.65878195      -1.73912389      -1.75304126
Li       1.20254940       0.71251934       2.72920228
Li      -0.72266543      -1.27996675       0.77152888
Li      -2.03060342      -0.50322769      -0.35876021
Li      -1.81055424      -1.27062286       0.06230482
Li       5.06405603      -0.50341894       3.29911318
Li       3.32220333      -1.26462695      -3.58089734
