21
Properties=species:S:1:pos:R:3 pbc="F F F"
Be      -0.02465694       0.28299428       0.26489393
Be       2.43088557       0.15278088      -0.06459092
Be       1.32969743       2.21307237       0.19383906
F        1.24194744       0.65150955      -0.11483200
F       -0.41337592      -0.61615442       1.44198949
F       -1.05215224      -0.05306714      -1.12958888
F       -1.12071925      -0.56281968       1.16202750
F        3.47189435       0.07250202       1.32271603
F        2.82093707      -0.48494885      -1.43915849
F        3.58847299      -0.77633324       1.08046270
F        1.20283075       3.52252124       1.20994592
F        0.83042850       2.71705882      -1.50218560
F        1.81629579       2.88529959       1.05605860
F       -2.75573910      -1.39814413       1.34978136
F        5.08371696      -1.84012081      -1.78685761
Li       1.33048135       0.65153269       3.06961438
Li      -0.76245508      -1.23374281       0.81740688
Li      -2.19083730      -0.27137067      -0.07474453
Li      -2.10452704      -1.54329315       0.15502256
Li       4.83275335      -0.23135061       2.91201664
Li       3.62534568      -1.18351409      -3.65336160
