21
Properties=species:S:1:pos:R:3 pbc="F F F"
Be       0.20614846       0.40844356       0.09245068
Be       2.40464868      -0.13380635       0.01582305
Be       1.32092675       2.45441322       0.05275328
F        1.31444489       0.99368244       0.05272854
F       -0.21214728      -0.54757691       1.29854154
F       -1.14591620      -0.11941089      -1.18643625
F       -1.06031240      -0.75968319       0.93083781
F        3.74155388       0.23942525       1.41799759
F        2.81207501      -0.38535937      -1.19044696
F        3.54220598      -1.03059946       1.04199828
F        0.99839301       3.53351490       0.75419219
F        1.10348269       2.72973543      -1.54863910
F        1.88687040       2.85264237       1.08310613
F       -2.47242052      -1.41362579       1.62506591
F        5.09441322      -1.53965339      -1.61712260
Li       1.40897287       0.84542663       3.01086662
Li      -0.84707394      -1.04499155       0.99624843
Li      -2.13136313      -0.01338452      -0.45931136
Li      -1.81417023      -1.30028107      -0.11823333
Li       4.72891742      -0.29004404       2.95590936
Li       3.65757632      -1.26051602      -3.93044123
