21
Properties=species:S:1:pos:R:3 pbc="F F F"
Be      -0.25406755       0.11019922       0.00685419
Be       2.48912663       0.12554015       0.06498814
Be       1.37741727       2.16303728      -0.09560731
F        1.45923191       0.77248873       0.31611219
F       -0.14068640      -0.60860269       1.38545170
F       -0.87642076      -0.12056163      -1.41274174
F       -0.87511105      -1.01455636       1.03631242
F        3.90794553       0.26192596       1.33725189
F        2.72043429      -0.57161557      -1.53470698
F        3.15309083      -0.88102149       0.79044759
F        0.88316237       3.45574642       1.25956690
F        0.60445115       2.90268670      -1.20577555
F        2.03434080       3.03604654       1.37731858
F       -2.47147630      -1.42411882       1.57668803
F        5.23184310      -1.60409035      -1.49008535
Li       1.51458478       0.91073449       2.94820142
Li      -1.10810049      -1.07236965       0.76921142
Li      -1.75840489      -0.01107995      -0.29378251
Li      -1.85207617      -1.68643163      -0.03280391
Li       4.61656400      -0.25331475       3.17789772
Li       3.68408537      -1.50084919      -3.69292436
