21
Properties=species:S:1:pos:R:3 pbc="F F F"
Be      -0.08946688       0.04250982       0.15064664
Be       2.52139571      -0.15556348      -0.00941950
Be       1.45974301       2.21161394       0.05713001
F        1.20597651       0.63503242       0.09698437
F       -0.08932736      -0.29305162       1.54260506
F       -0.58686417       0.34067255      -1.25309130
F       -0.95482641      -0.53852923       1.02330632
F        3.76862644       0.08043834       1.26529288
F        2.81080618      -0.39338628      -1.44996760
F        3.41339512      -0.98828356       1.18435070
F        1.08801264       3.40737600       0.71451064
F        0.87643154       2.49971305      -1.42596596
F        1.83479443       2.85910295       0.87952742
F       -2.66327926      -1.38969372       1.69830612
F        5.29835259      -1.19832395      -1.41414376
Li       1.18865965       0.53971465       2.82794855
Li      -0.91698012      -1.24165390       0.87528919
Li      -1.83399799      -0.28161916      -0.16652510
Li      -1.66297935      -1.51435197       0.17991749
Li       4.68880004      -0.29482994       3.22811560
Li       3.70450798      -1.18868907      -3.67782861
