21
Properties=species:S:1:pos:R:3 pbc="F F F"
Be      -0.19081932       0.00848477      -0.08830066
Be       2.61009547       0.10458833      -0.15922818
Be       1.21197693       2.46056177       0.37231295
F        1.24585845       0.68493124       0.13349199
F       -0.37991463      -0.55751963       1.27298679
F       -0.99835745      -0.01266028      -1.25224813
F       -0.74825464      -0.51688795       0.91657441
F        3.67037203       0.19260725       0.96077308
F        2.65107436      -0.17020714      -1.56698560
F        3.53755008      -0.54974057       1.01866868
F        0.80347390       3.74155525       1.13158603
F        0.92240713       2.53695487      -1.45188000
F        1.94244659       2.83886306       1.20070147
F       -2.46167841      -1.41847028       1.69441853
F        5.08723757      -1.58199366      -1.80590975
Li       1.34126865       0.49392683       2.90200257
Li      -1.10459974      -0.98892764       0.88853808
Li      -2.13792757      -0.07896625      -0.21574907
Li      -1.87218511      -1.32212234       0.23950342
Li       4.74178705      -0.21279804       3.39164722
Li       3.63428537      -1.13161997      -3.54178801
