&CONTROL
  calculation = 'nscf'
  restart_mode = 'from_scratch'
  prefix = 'lto'
  outdir = './tmp'
  pseudo_dir = '/home/stevens/projects/replicate-1981773/pseudo'
  verbosity = 'low'
/
&SYSTEM
  ibrav = 0
  nat = 88
  ntyp = 3
  ecutwfc = 60.0
  ecutrho = 480.0
  occupations = 'tetrahedra_opt'
  nbnd = 528
  nosym = .true.
  noinv = .true.
/
&ELECTRONS
  conv_thr = 1.0d-8
  diagonalization = 'david'
/
ATOMIC_SPECIES
  La  138.9055  La.upf
  O  15.999  O.upf
  Ti  47.867  Ti.upf
CELL_PARAMETERS angstrom
  5.5444604000  0.0000000000  0.0000000000
  0.0000000000  12.9184064788  -1.9471732778
  0.0000000000  0.0000000000  31.1066891600
ATOMIC_POSITIONS crystal
  La  0.6536290900  0.4192279600  0.4631480200
  La  0.1536290900  0.5807720400  0.2868519800
  La  0.6986593200  0.3898775100  0.3375921500
  La  0.7398607100  0.9018691800  0.3067641700
  La  0.7454590300  0.8851891200  0.4302973100
  La  0.1986593200  0.6101224900  0.4124078500
  La  0.2454590300  0.1148108800  0.3197026900
  La  0.2398607100  0.0981308200  0.4432358300
  La  0.6536290900  0.4192279600  0.7131480200
  La  0.1536290900  0.5807720400  0.5368519800
  La  0.6986593200  0.3898775100  0.5875921500
  La  0.7398607100  0.9018691800  0.5567641700
  La  0.7454590300  0.8851891200  0.6802973100
  La  0.1986593200  0.6101224900  0.6624078500
  La  0.2454590300  0.1148108800  0.5697026900
  La  0.2398607100  0.0981308200  0.6932358300
  Ti  0.2032768100  0.3254275700  0.3955282400
  Ti  0.2344174800  0.8819316700  0.4923408100
  Ti  0.7355322500  0.1203036600  0.3815997000
  Ti  0.2074277900  0.3217180700  0.2691524500
  Ti  0.7344174800  0.1180683300  0.2576591900
  Ti  0.2355322500  0.8796963400  0.3684003000
  Ti  0.7032768100  0.6745724300  0.3544717600
  Ti  0.7074277900  0.6782819300  0.4808475500
  Ti  0.2032768100  0.3254275700  0.6455282400
  Ti  0.2344174800  0.8819316700  0.7423408100
  Ti  0.7355322500  0.1203036600  0.6315997000
  Ti  0.2074277900  0.3217180700  0.5191524500
  Ti  0.7344174800  0.1180683300  0.5076591900
  Ti  0.2355322500  0.8796963400  0.6184003000
  Ti  0.7032768100  0.6745724300  0.6044717600
  Ti  0.7074277900  0.6782819300  0.7308475500
  O  0.4272433000  0.4302982500  0.2806413400
  O  0.9272433000  0.5697017500  0.4693586600
  O  0.2849325900  0.3045030700  0.4563454100
  O  0.0439122500  0.1858211100  0.2570340500
  O  0.9159644000  0.5605428700  0.3510725400
  O  0.8099892600  0.0925463000  0.3182263400
  O  0.5320363700  0.2258212500  0.2757922000
  O  0.9448365300  0.4081040100  0.2714237200
  O  0.4755329800  0.0191210900  0.3687505000
  O  0.9755329800  0.9808789100  0.3812495000
  O  0.9283221900  0.3964695500  0.4042359200
  O  0.5439122500  0.8141788900  0.4929659500
  O  0.6679358200  0.6921963200  0.4183008400
  O  0.4758324700  0.0168515700  0.2584215600
  O  0.0492379800  0.1842004000  0.3905497000
  O  0.3099892600  0.9074537000  0.4317736600
  O  0.0320363700  0.7741787500  0.4742078000
  O  0.4283221900  0.6035304500  0.3457640800
  O  0.1966634800  0.8928450400  0.3059737700
  O  0.0381959000  0.7705145000  0.3727406500
  O  0.9758324700  0.9831484300  0.4915784500
  O  0.1679358200  0.3078036800  0.3316991600
  O  0.5492379800  0.8157996000  0.3594503000
  O  0.4448365300  0.5918959900  0.4785762800
  O  0.4159644000  0.4394571300  0.3989274600
  O  0.6966634800  0.1071549600  0.4440262300
  O  0.7849325900  0.6954969300  0.2936545900
  O  0.5381959000  0.2294855000  0.3772593500
  O  0.4272433000  0.4302982500  0.5306413500
  O  0.9272433000  0.5697017500  0.7193586500
  O  0.2849325900  0.3045030700  0.7063454100
  O  0.0439122500  0.1858211100  0.5070340500
  O  0.9159644000  0.5605428700  0.6010725400
  O  0.8099892600  0.0925463000  0.5682263400
  O  0.5320363700  0.2258212500  0.5257922000
  O  0.9448365300  0.4081040100  0.5214237200
  O  0.4755329800  0.0191210900  0.6187505000
  O  0.9755329800  0.9808789100  0.6312495000
  O  0.9283221900  0.3964695500  0.6542359300
  O  0.5439122500  0.8141788900  0.7429659500
  O  0.6679358200  0.6921963200  0.6683008400
  O  0.4758324700  0.0168515700  0.5084215500
  O  0.0492379800  0.1842004000  0.6405497000
  O  0.3099892600  0.9074537000  0.6817736600
  O  0.0320363700  0.7741787500  0.7242078000
  O  0.4283221900  0.6035304500  0.5957640700
  O  0.1966634800  0.8928450400  0.5559737700
  O  0.0381959000  0.7705145000  0.6227406500
  O  0.9758324700  0.9831484300  0.7415784500
  O  0.1679358200  0.3078036800  0.5816991600
  O  0.5492379800  0.8157996000  0.6094503000
  O  0.4448365300  0.5918959900  0.7285762800
  O  0.4159644000  0.4394571300  0.6489274600
  O  0.6966634800  0.1071549600  0.6940262300
  O  0.7849325900  0.6954969300  0.5436545900
  O  0.5381959000  0.2294855000  0.6272593500
K_POINTS automatic
  4 3 1  0 0 0
