LAMMPS data file via write_data, version 29 Aug 2024, timestep = 3725, units = metal

1125 atoms
2 atom types

0.27142352873012837 22.652532471270003 xlo xhi
0.3552393613461298 19.727242638653973 ylo yhi
-7.6455285265301 33.44648052652988 zlo zhi
-11.184433576637142 0 0 xy xz yz

Masses

1 28.0855
2 15.9994

Atoms # full

8 1 2 0 2.6995075889503988 2.195529751662333 -5.233725982468261 0 0 0
3 1 1 0 3.270246270767867 1.3139544120082407 -6.6963276863117285 0 0 0
17 2 2 0 7.175718911973441 2.1954750204047997 -5.233717565742682 0 0 0
12 2 1 0 7.746448243021414 1.3139101785273377 -6.696277493862204 0 0 0
26 3 2 0 11.651900608082634 2.1954462973134805 -5.233774656751084 0 0 0
21 3 1 0 12.222656812733833 1.313888447334845 -6.696320045191017 0 0 0
30 4 1 0 16.69886204738643 1.3139338003405607 -6.696368822284464 0 0 0
35 4 2 0 16.128092217279292 2.1955075445194403 -5.2338313926363895 0 0 0
39 5 1 0 21.175101937907883 1.3139704638589926 -6.696363013645639 0 0 0
44 5 2 0 20.604362476938434 2.1955647170876276 -5.233805023084056 0 0 0
53 6 2 0 0.46254657584767706 6.069929868963427 -5.23381207446498 0 0 0
7 1 2 0 1.3101744241834934 3.9761842705941586 -5.447682017497435 0 0 0
48 6 1 0 1.0332884323875693 5.1883439878948545 -6.69647232713667 0 0 0
62 7 2 0 4.938784425781627 6.069876712037498 -5.233736572018042 0 0 0
57 7 1 0 5.5095318178856765 5.18830328893187 -6.69637194207715 0 0 0
16 2 2 0 5.786423883326064 3.9761450871959685 -5.447623311630995 0 0 0
71 8 2 0 9.41502350310039 6.069830212035752 -5.23370973053925 0 0 0
25 3 2 0 10.262606931530115 3.9760894073707416 -5.447628767988728 0 0 0
66 8 1 0 9.985764245392815 5.188275133416802 -6.696260424518344 0 0 0
80 9 2 0 13.891186885417188 6.069867079513566 -5.233790386603321 0 0 0
75 9 1 0 14.461936809130009 5.188304661407601 -6.69633981311104 0 0 0
34 4 2 0 14.738748192936216 3.976109119615581 -5.4477116680903395 0 0 0
43 5 2 0 19.215032594725432 3.9761934556358214 -5.447734117360736 0 0 0
84 10 1 0 18.938140687642065 5.188364687996577 -6.69642340143609 0 0 0
89 10 2 0 18.367387407458946 6.069919385919057 -5.233847145443745 0 0 0
93 11 1 0 -1.203645636079543 9.06271374566515 -6.696422030481236 0 0 0
52 6 2 0 -0.9267692034287294 7.850552467884811 -5.4476707897023005 0 0 0
98 11 2 0 -1.7743895756323378 9.944273756835987 -5.233790196899222 0 0 0
107 12 2 0 2.7019153969541927 9.94428501662099 -5.233766231665003 0 0 0
61 7 2 0 3.5494874183641194 7.850536315168426 -5.447623907519574 0 0 0
102 12 1 0 3.2726245692079887 9.06267756878239 -6.696392277710224 0 0 0
70 8 2 0 8.025733593513484 7.850500650354582 -5.447610723966859 0 0 0
111 13 1 0 7.748871088115225 9.062677139160705 -6.696271947745384 0 0 0
116 13 2 0 7.178169194779097 9.944264238374233 -5.2337104998507975 0 0 0
120 14 1 0 12.22508078549513 9.062695491876385 -6.696248396802204 0 0 0
79 9 2 0 12.501892524046088 7.850500686286493 -5.44762416146138 0 0 0
125 14 2 0 11.654369830017831 9.944272541298314 -5.233701998067043 0 0 0
129 15 1 0 16.70122949603946 9.062699052593713 -6.696316560296913 0 0 0
134 15 2 0 16.130503034496137 9.944254095382233 -5.2337442146555135 0 0 0
88 10 2 0 16.978074033843544 7.850518345415022 -5.447648134142769 0 0 0
138 16 1 0 -3.4405019361956657 12.937081203912431 -6.696292886119691 0 0 0
97 11 2 0 -3.1636971343913185 11.724895065183162 -5.447627343266101 0 0 0
106 12 2 0 1.312614505319887 11.72492956853836 -5.447658888319622 0 0 0
147 17 1 0 1.0357294085457418 12.937083921039418 -6.696331178888356 0 0 0
156 18 1 0 5.511987986167948 12.937069671467608 -6.6962785821825905 0 0 0
115 13 2 0 5.788855842182227 11.724919764535233 -5.4476270606866555 0 0 0
124 14 2 0 10.265091249817388 11.724950317756175 -5.447595621286689 0 0 0
165 19 1 0 9.988230993077153 12.937113964919321 -6.6962283833921905 0 0 0
174 20 1 0 14.464435864571133 12.937097125540816 -6.696211648484936 0 0 0
133 15 2 0 14.74125946143014 11.724924890115036 -5.447561866135648 0 0 0
183 21 1 0 -5.6773149090494455 16.811508413651513 -6.696234528828071 0 0 0
143 16 2 0 -4.011203917212001 13.818662671437403 -5.2337330378866 0 0 0
142 16 2 0 -5.400500617415981 15.599309771114351 -5.447599274779125 0 0 0
192 22 1 0 -1.2011129371665954 16.811486230462847 -6.696292312021919 0 0 0
151 17 2 0 -0.9242799601735048 15.599310090129764 -5.447658569145608 0 0 0
152 17 2 0 0.46501627261156103 13.818666089826735 -5.233781783779813 0 0 0
161 18 2 0 4.941278000592641 13.818670793232119 -5.233759562613737 0 0 0
160 18 2 0 3.551968164949667 15.599321261550973 -5.44769648003314 0 0 0
201 23 1 0 3.275126035867258 16.81148072149656 -6.696330622129203 0 0 0
169 19 2 0 8.028199120226414 15.599364957545868 -5.4476460216694385 0 0 0
210 24 1 0 7.751337914287573 16.81151405130503 -6.69628681323784 0 0 0
170 19 2 0 9.417516833229211 13.818708089801524 -5.233698935269123 0 0 0
179 20 2 0 13.893705261557384 13.818671204309602 -5.233664678250312 0 0 0
219 25 1 0 12.227572892983243 16.811537761021714 -6.696228382714055 0 0 0
178 20 2 0 12.50441523400958 15.599350188897208 -5.447592475666213 0 0 0
187 21 2 0 -7.6373193473299 19.47377631078181 -5.447622448727734 0 0 0
188 21 2 0 -6.248046281613425 17.693079141884304 -5.233676825956437 0 0 0
196 22 2 0 -3.1611352511650175 19.473720616464078 -5.44764288384564 0 0 0
197 22 2 0 -1.7718392583035334 17.693068968549746 -5.233752388171323 0 0 0
205 23 2 0 1.3150778689982177 19.473708236068394 -5.447706059040586 0 0 0
206 23 2 0 2.7043686095502597 17.693065537116635 -5.233809994170778 0 0 0
214 24 2 0 5.791295492758465 19.473778334573286 -5.447729311777289 0 0 0
215 24 2 0 7.180596217521803 17.69311347945587 -5.233765482850267 0 0 0
223 25 2 0 10.267544572240872 19.473815203703428 -5.447674515880481 0 0 0
224 25 2 0 11.65682201670593 17.693112835072103 -5.233681559219915 0 0 0
4 1 2 0 20.8845049481783 2.6767440694188678 -2.738032662178111 -1 0 0
2 1 1 0 1.7897533572594173 3.0423363278547755 -3.984692302336327 0 0 0
6 1 2 0 0.7421188949698205 2.9866757889646016 -2.52110303374654 0 0 0
15 2 2 0 5.218362522835122 2.9866680229206137 -2.5210625747641906 0 0 0
13 2 2 0 2.9796384561087788 2.676790062076939 -2.7379609398568148 0 0 0
11 2 1 0 6.265994824251028 3.0422815195527013 -3.984713311622006 0 0 0
22 3 2 0 7.455852042605371 2.6766375476605804 -2.737929120886254 0 0 0
20 3 1 0 10.742201738104797 3.0422071279584935 -3.984800217251409 0 0 0
24 3 2 0 9.694574004668544 2.9865515567246668 -2.521075615298651 0 0 0
31 4 2 0 11.932057790064784 2.676590201474786 -2.7379368762959757 0 0 0
29 4 1 0 15.218379082486472 3.042260283127289 -3.984873717044556 0 0 0
33 4 2 0 14.17075988441625 2.9865742624905938 -2.521138111829954 0 0 0
40 5 2 0 16.408274329556928 2.676660478473127 -2.738036929575115 0 0 0
42 5 2 0 18.64697219989252 2.986648107814757 -2.521165713968375 0 0 0
38 5 1 0 19.694617294161 3.042345989023541 -3.984827513644065 0 0 0
49 6 2 0 18.64763325148636 6.5510814310162475 -2.7379826959356404 -1 0 0
47 6 1 0 -0.44715051001354594 6.9166876412911025 -3.9846879901840366 0 0 0
51 6 2 0 -1.494769763824917 6.860994660722734 -2.521118192630838 0 0 0
58 7 2 0 0.7427525023050918 6.551133814478205 -2.737976663578767 0 0 0
56 7 1 0 4.029094552147029 6.916687731723646 -3.9846489696778122 0 0 0
60 7 2 0 2.9814759762408194 6.861044611903915 -2.521057833604604 0 0 0
67 8 2 0 5.218976797070761 6.551115966406491 -2.7379140949454204 0 0 0
69 8 2 0 7.457689983228086 6.861028093575312 -2.5210431105799396 0 0 0
65 8 1 0 8.505319189964936 6.916649931575543 -3.9847391643307595 0 0 0
76 9 2 0 9.695188881200314 6.551052409896973 -2.737905784462117 0 0 0
74 9 1 0 12.98152787349972 6.9166406861297896 -3.98479686923506 0 0 0
78 9 2 0 11.933893428802117 6.860994499945123 -2.5210777543597294 0 0 0
85 10 2 0 14.171400814743496 6.55110364380743 -2.7379223629196394 0 0 0
87 10 2 0 16.41011097032873 6.860992366751942 -2.5211073953520398 0 0 0
83 10 1 0 17.45773145658237 6.9166553464792395 -3.984782582774214 0 0 0
94 11 2 0 16.410746854766018 10.425462551655947 -2.737877049653221 -1 0 0
96 11 2 0 -3.731647774417694 10.73536952476099 -2.5210576082374256 0 0 0
92 11 1 0 -2.6840539754244643 10.79104727308706 -3.9847299524564495 0 0 0
103 12 2 0 -1.494119477312639 10.425483641476584 -2.7379691339529284 0 0 0
101 12 1 0 1.7922106736736632 10.791090532073968 -3.9847444984335083 0 0 0
105 12 2 0 0.7445887464305654 10.735407359760341 -2.5210914826891226 0 0 0
112 13 2 0 2.982100958707311 10.425498556424884 -2.7379534037706446 0 0 0
114 13 2 0 5.220817849465978 10.735412473738592 -2.5210566554807086 0 0 0
110 13 1 0 6.268450781894232 10.791085444861283 -3.9847547332342175 0 0 0
121 14 2 0 7.458327174206621 10.425505278824522 -2.7379126458354826 0 0 0
119 14 1 0 10.744683685125434 10.79109336803231 -3.9847568562931794 0 0 0
123 14 2 0 9.697034286053785 10.735458309394579 -2.521044816602524 0 0 0
130 15 2 0 11.934527490975302 10.425467499290747 -2.737883354777237 0 0 0
128 15 1 0 15.220868682024033 10.791051128353896 -3.984731293691797 0 0 0
132 15 2 0 14.173238369613024 10.735386018132015 -2.5210216327966055 0 0 0
141 16 2 0 -5.968522171256573 14.609742884417082 -2.521039149511065 0 0 0
139 16 2 0 14.173861713930734 14.299801125525965 -2.7379217336413806 -1 0 0
137 16 1 0 -4.920900981772349 14.665443765741994 -3.984754613158608 0 0 0
148 17 2 0 -3.7310143888120404 14.299846681624532 -2.737920229620121 0 0 0
150 17 2 0 -1.4923011639045536 14.609784356041828 -2.5210894398396952 0 0 0
146 17 1 0 -0.4446814358326325 14.665450553865188 -3.984810406988003 0 0 0
157 18 2 0 0.7451885270992678 14.299832079444363 -2.7379668348506723 0 0 0
159 18 2 0 2.9838982601742323 14.609773388783655 -2.521112908853935 0 0 0
155 18 1 0 4.031534304621566 14.66546577205564 -3.9848397516821645 0 0 0
166 19 2 0 5.2214006941686595 14.29985122700103 -2.7379825532835413 0 0 0
168 19 2 0 7.460123026350704 14.609812632734755 -2.521071712222918 0 0 0
164 19 1 0 8.507770519634999 14.665513502005242 -3.9847949659957527 0 0 0
175 20 2 0 9.697622813157308 14.299877976340962 -2.737929524281789 0 0 0
177 20 2 0 11.936352873311577 14.60981712207131 -2.521022354537868 0 0 0
173 20 1 0 12.983985405943251 14.665491426336562 -3.9847442180723065 0 0 0
184 21 2 0 11.936964073086353 18.174294153739545 -2.737990627660583 -1 0 0
182 21 1 0 -7.1577774914123875 18.539913636160982 -3.984733518720467 0 0 0
186 21 2 0 -8.205410473833705 18.484241699008873 -2.5210475029167014 0 0 0
193 22 2 0 -5.967899721935279 18.17427913408588 -2.737933345800645 0 0 0
195 22 2 0 -3.7291761269474124 18.484208378614852 -2.5210735196236485 0 0 0
191 22 1 0 -2.6815498872549286 18.53985375680563 -3.984796438422738 0 0 0
202 23 2 0 -1.4916921639080132 18.174247408155857 -2.7379403223323013 0 0 0
200 23 1 0 1.794647455944533 18.539829626744382 -3.9848705786546272 0 0 0
204 23 2 0 0.7470181588826799 18.48418631967096 -2.5211337386766175 0 0 0
211 24 2 0 2.984491273993566 18.174159761132433 -2.7380043965595267 0 0 0
213 24 2 0 5.223190275262644 18.484169065954223 -2.5211441980067644 0 0 0
209 24 1 0 6.270832029274684 18.539912123482488 -3.9848727549760836 0 0 0
220 25 2 0 7.460706198375098 18.174242795052887 -2.738033569604175 0 0 0
218 25 1 0 10.747070730989261 18.539968768686713 -3.9847897004850696 0 0 0
222 25 2 0 9.699426462771413 18.484254801496053 -2.5210872025289577 0 0 0
1 1 1 0 -0.44781335534847583 2.6147815571657747 -1.275297933482281 0 0 0
9 1 2 0 3.563528250617278 1.6732695798647272 0.18861321568719536 0 0 0
10 2 1 0 4.028430380893182 2.614819606976425 -1.2752493689840971 0 0 0
18 2 2 0 8.039808582930819 1.673198803331332 0.18865580116639524 0 0 0
19 3 1 0 8.504684922570117 2.614714011157321 -1.2751452801710732 0 0 0
27 3 2 0 12.516052632595237 1.6732400362243862 0.18865074385120018 0 0 0
28 4 1 0 12.98091988172281 2.6147312931653035 -1.2751475953106546 0 0 0
36 4 2 0 16.992253668694733 1.6731495733131 0.18853914375739578 0 0 0
37 5 1 0 17.457101995518546 2.614707821475103 -1.2752544773229415 0 0 0
45 5 2 0 21.468393839381996 1.673229603037197 0.18855773312916124 0 0 0
46 6 1 0 -2.684657370149445 6.489142877630386 -1.2752634501743314 0 0 0
5 1 2 0 0.47747140952883665 3.45321192837798 -0.03292160195318683 0 0 0
54 6 2 0 1.3266653631746401 5.547607531971889 0.1886155506708489 0 0 0
55 7 1 0 1.7915420663300103 6.489172690365739 -1.2752859892381299 0 0 0
14 2 2 0 4.953779170381329 3.453202615469976 -0.03285665106749924 0 0 0
63 7 2 0 5.802960030648802 5.547603258254211 0.18866959162752384 0 0 0
64 8 1 0 6.267789594213713 6.489160307082438 -1.2751818335121214 0 0 0
23 3 2 0 9.429958802412 3.4532119341876837 -0.032851342309048626 0 0 0
72 8 2 0 10.279147860556083 5.547613295019842 0.18865993468543873 0 0 0
73 9 1 0 10.744033900425409 6.489137635578344 -1.2751128297956873 0 0 0
32 4 2 0 13.906183209999817 3.4532624126722515 -0.032888182671626964 0 0 0
81 9 2 0 14.755315832776573 5.547689555643948 0.18864431808538829 0 0 0
82 10 1 0 15.220241005706175 6.4892091565206265 -1.275150773163844 0 0 0
41 5 2 0 18.382331856215423 3.4532090999521934 -0.03293257031313779 0 0 0
90 10 2 0 19.231527759790247 5.547608219064406 0.18859662564883095 0 0 0
50 6 2 0 -1.759347939341153 7.327562804452588 -0.03289834640739997 0 0 0
99 11 2 0 -0.9101885831370222 9.421967532842961 0.1886076726649879 0 0 0
59 7 2 0 2.7168738485247745 7.327577070153121 -0.03287337163373483 0 0 0
108 12 2 0 3.566059952040832 9.421973766850682 0.18863673458054464 0 0 0
68 8 2 0 7.193132864963406 7.327602564855222 -0.032845361887831714 0 0 0
117 13 2 0 8.04228105410888 9.422021066236354 0.18866390358549356 0 0 0
77 9 2 0 11.669285100891326 7.327604703798753 -0.032808581871139886 0 0 0
126 14 2 0 12.518470325167302 9.422012730659336 0.18871097940179737 0 0 0
86 10 2 0 16.14546091687475 7.327675148959 -0.03280789334052958 0 0 0
135 15 2 0 16.994672132674044 9.422077926794366 0.18870733187471256 0 0 0
91 11 1 0 -4.92151328905609 10.363574379139218 -1.275115994337205 0 0 0
95 11 2 0 -3.9962201024241404 11.202018260360278 -0.032814510449896694 0 0 0
100 12 1 0 -0.44529755934064424 10.36351004861015 -1.275218852138332 0 0 0
104 12 2 0 0.48003082573800065 11.201912630489119 -0.03287901562233664 0 0 0
109 13 1 0 4.030916921387418 10.363518243128325 -1.2751748350664487 0 0 0
113 13 2 0 4.956240418214469 11.201936011734437 -0.03285663335737432 0 0 0
118 14 1 0 8.507157726208508 10.363548015524689 -1.275114228234881 0 0 0
122 14 2 0 9.432489146090818 11.201948661178783 -0.03282069512619401 0 0 0
127 15 1 0 12.983356787574795 10.363528412214956 -1.275085257339148 0 0 0
131 15 2 0 13.908605932173527 11.201991424598607 -0.032766477961833296 0 0 0
136 16 1 0 -7.158415389579072 14.237873255252415 -1.2751174135045398 0 0 0
140 16 2 0 -6.2331109921911665 15.076399093024603 -0.032878852377295154 0 0 0
144 16 2 0 -3.1470341610088592 13.296434610161345 0.188676906135262 0 0 0
145 17 1 0 -2.6821634424883785 14.237930524443303 -1.275128817419323 0 0 0
149 17 2 0 -1.7568519509634684 15.076400674739759 -0.03286501157635602 0 0 0
153 17 2 0 1.3291866844407083 13.29633189294905 0.1886229204321257 0 0 0
154 18 1 0 1.7940339467490884 14.23785559274167 -1.2751657208423017 0 0 0
158 18 2 0 2.719318603246945 15.076314496032463 -0.03286885229232528 0 0 0
162 18 2 0 5.805350362082356 13.29637902075849 0.1886325975291676 0 0 0
163 19 1 0 6.270221350178815 14.237875377934538 -1.275165920058643 0 0 0
167 19 2 0 7.195568120557601 15.076317579698188 -0.03290257407027042 0 0 0
171 19 2 0 10.281612705766557 13.296389397704383 0.18868912057761733 0 0 0
172 20 1 0 10.746443182265828 14.237903779713028 -1.2751219084378338 0 0 0
176 20 2 0 11.671800347825835 15.07637414436686 -0.032878681300637425 0 0 0
180 20 2 0 14.757823249202126 13.296389380436848 0.18869950323134876 0 0 0
181 21 1 0 -9.395346914896765 18.112341183081632 -1.2751967765734333 0 0 0
185 21 2 0 -8.470045015485475 18.950851379916514 -0.03293291393339537 0 0 0
189 21 2 0 -5.383952367495912 17.17081851266581 0.18863701367700703 0 0 0
190 22 1 0 -4.919064848059871 18.112341893613543 -1.2751459939659755 0 0 0
194 22 2 0 -3.9937838922530338 18.950792345304833 -0.03284011733446501 0 0 0
198 22 2 0 -0.9076974566914944 17.170825756404202 0.1886357722154237 0 0 0
199 23 1 0 -0.4428307281844434 18.112333589829454 -1.275146883229839 0 0 0
203 23 2 0 0.48243756380223407 18.950817311790892 -0.032861453366678006 0 0 0
207 23 2 0 3.5684849966617254 17.170748179691852 0.1886139915301479 0 0 0
208 24 1 0 4.033336536497822 18.112228041308086 -1.27519907483678 0 0 0
212 24 2 0 4.95869862899659 18.950727857641496 -0.03298085385142624 0 0 0
216 24 2 0 8.044696437733565 17.170747848081326 0.18859289382084476 0 0 0
217 25 1 0 8.509511073155629 18.112277213387642 -1.275222868890216 0 0 0
221 25 2 0 9.434807126491306 18.95081752543816 -0.03297535218538439 0 0 0
225 25 2 0 12.520914732492187 17.170811458259024 0.18862393672995292 0 0 0
233 26 2 0 3.055554982268528 1.6746350152932812 2.669135757299232 0 0 0
228 26 1 0 3.3072878473426455 0.4480811068932183 1.429339384484182 0 0 0
237 27 1 0 7.783537446159466 0.4480518360021446 1.4293783273031941 0 0 0
242 27 2 0 7.531756304091496 1.6745771604171407 2.6692328850845897 0 0 0
251 28 2 0 12.007944806012857 1.6746022767795699 2.6692094615293396 0 0 0
246 28 1 0 12.259762565964186 0.44807672363038736 1.4293390039257687 0 0 0
255 29 1 0 16.735998236805276 0.44799513270898467 1.4292509912137223 0 0 0
260 29 2 0 16.4841192639908 1.6745213182671899 2.6690864926864464 0 0 0
264 30 1 0 21.212118277093058 0.4480603111670477 1.4292785814697915 0 0 0
269 30 2 0 20.96036429698922 1.6746192957900148 2.6690850414140197 0 0 0
278 31 2 0 0.8186679360576192 5.548992659151418 2.6691435577169997 0 0 0
273 31 1 0 1.070390696875058 4.322437529653702 1.42938046218765 0 0 0
232 26 2 0 1.6647941368609458 3.454163197357875 2.8920399511141124 0 0 0
282 32 1 0 5.546688182693757 4.322446543135667 1.4294274406721357 0 0 0
287 32 2 0 5.294933151206472 5.548991675862433 2.669200396035505 0 0 0
241 27 2 0 6.141061083063587 3.4541627025958115 2.8921133674882107 0 0 0
291 33 1 0 10.02283950093814 4.322466950334293 1.4293667211872894 0 0 0
296 33 2 0 9.771125569828703 5.548998965410062 2.669223051636772 0 0 0
250 28 2 0 10.617190997774474 3.45414331099171 2.8921065634415015 0 0 0
305 34 2 0 14.247346778174554 5.549003827272062 2.669214082594463 0 0 0
300 34 1 0 14.499103042861382 4.3224930739402625 1.4293301181151055 0 0 0
259 29 2 0 15.093534893772455 3.4541937285277506 2.892045966877662 0 0 0
309 35 1 0 18.975201498165234 4.322452515944109 1.4293308550221866 0 0 0
268 30 2 0 19.569638236148958 3.454171549668717 2.892025716543051 0 0 0
314 35 2 0 18.72338080491164 5.548952095027395 2.669175318610364 0 0 0
318 36 1 0 -1.1664794620469634 8.196832109651316 1.429375614329608 0 0 0
277 31 2 0 -0.5720593083852414 7.328546147654147 2.8920569111964056 0 0 0
323 36 2 0 -1.4183007094029698 9.423319111212997 2.6691989889234407 0 0 0
332 37 2 0 3.0580843252356695 9.423366991073554 2.6691751533347663 0 0 0
327 37 1 0 3.309797821608716 8.196825004829464 1.4293963741173297 0 0 0
286 32 2 0 3.904184712994309 7.328533821328506 2.8920826002745397 0 0 0
336 38 1 0 7.786032017908495 8.196864810459646 1.4293901136799203 0 0 0
295 33 2 0 8.380432418783219 7.3285829330991525 2.8921098119408537 0 0 0
341 38 2 0 7.534309618715448 9.423417763746183 2.6691931960799984 0 0 0
345 39 1 0 12.262194738270372 8.196844050873574 1.4294011160860087 0 0 0
304 34 2 0 12.856581769766777 7.328537500017397 2.8921459103828635 0 0 0
350 39 2 0 12.010515762482845 9.42338212243353 2.669269392996039 0 0 0
354 40 1 0 16.738372094615407 8.196912074888258 1.4294163307352896 0 0 0
359 40 2 0 16.48664890437527 9.42343237924064 2.6692801641216164 0 0 0
313 35 2 0 17.332759414602865 7.328600174034458 2.8921362334450187 0 0 0
363 41 1 0 -3.4032935953139196 12.071277179710656 1.4293892631233245 0 0 0
322 36 2 0 -2.80886366331129 11.20302771062382 2.892139969791419 0 0 0
372 42 1 0 1.0729128755842445 12.071187585407307 1.4293437807050928 0 0 0
331 37 2 0 1.6673563596555325 11.20293216369894 2.8920834777464037 0 0 0
381 43 1 0 5.549121890448396 12.071222614894888 1.42934449970911 0 0 0
340 38 2 0 6.143584182744343 11.202979711786922 2.892092860277968 0 0 0
390 44 1 0 10.025395879497225 12.07121310724172 1.4293788935910463 0 0 0
349 39 2 0 10.619836182857135 11.202982377148514 2.8921516818724715 0 0 0
399 45 1 0 14.501513807366816 12.07126344523365 1.4294255461673266 0 0 0
358 40 2 0 15.09592034186403 11.203006615743009 2.8921958731162967 0 0 0
408 46 1 0 -5.640232666316406 15.945663659287002 1.4293421472206695 0 0 0
368 41 2 0 -3.6550916649606386 13.29783778326341 2.669209535569859 0 0 0
367 41 2 0 -5.045852433923294 15.077408223585111 2.8921154101727478 0 0 0
417 47 1 0 -1.1639298626214816 15.94565814113064 1.4293326773156227 0 0 0
376 42 2 0 -0.5694675726901341 15.077409171984836 2.8920826272782083 0 0 0
377 42 2 0 0.8211206889409259 13.297732253287824 2.6691539649975304 0 0 0
386 43 2 0 5.297365564327581 13.297781907568906 2.669167233426741 0 0 0
426 48 1 0 3.3121965354640235 15.945605629530613 1.4293220796581103 0 0 0
385 43 2 0 3.9066519451665656 15.077363739969991 2.8920909890384117 0 0 0
435 49 1 0 7.788465872223478 15.945590736469361 1.4293004461286767 0 0 0
394 44 2 0 8.382909418880224 15.077357350248365 2.892069454718671 0 0 0
395 44 2 0 9.773648314390094 13.2978012660882 2.669193977723996 0 0 0
404 45 2 0 14.24976550121492 13.297825167534798 2.669260282283778 0 0 0
444 50 1 0 12.264675758705907 15.94565529336015 1.429340927622217 0 0 0
403 45 2 0 12.859087351283922 15.07744468567467 2.8921200855864395 0 0 0
412 46 2 0 -7.282725941255304 18.951816448835654 2.892027768091177 0 0 0
413 46 2 0 -5.891986076530523 17.17226650525518 2.669128699939302 0 0 0
421 47 2 0 -2.806474703020541 18.95177937158341 2.8921145926421943 0 0 0
422 47 2 0 -1.415757328803439 17.17219900339523 2.6691849322281342 0 0 0
430 48 2 0 1.6697431342093123 18.95180431006986 2.8921008972876443 0 0 0
431 48 2 0 3.060375516100896 17.17215388353613 2.6691621124227076 0 0 0
439 49 2 0 6.146004862127279 18.951750105135964 2.892002882906773 0 0 0
440 49 2 0 7.536663968496713 17.172146203971185 2.6691348027160675 0 0 0
448 50 2 0 10.622071149202343 18.95177917672612 2.8919924253004616 0 0 0
449 50 2 0 12.01286258540072 17.172268108786657 2.6691056172042273 0 0 0
229 26 2 0 -0.8271489777314922 2.693354950819068 5.593943349363398 0 0 0
226 26 1 0 0.3631407505440139 3.0512901136491495 6.843390008982732 0 0 0
227 26 1 0 2.5982253434920963 2.6212201091079135 4.132533790394113 0 0 0
231 26 2 0 1.4083891004085207 2.999751106802154 5.3769379223811935 0 0 0
240 27 2 0 5.884616422314714 2.9996882259593938 5.3770536357606655 0 0 0
238 27 2 0 3.649063662411483 2.6934348626191147 5.594024214495983 0 0 0
235 27 1 0 4.839373124259183 3.0512274199929013 6.843510619948889 0 0 0
236 27 1 0 7.074416323473146 2.6211632809801975 4.132631932368188 0 0 0
247 28 2 0 8.125267499182538 2.6933040944866513 5.594095383446135 0 0 0
245 28 1 0 11.550597556122403 2.621172770556401 4.132623891480135 0 0 0
249 28 2 0 10.360826456947194 2.9996458781258846 5.377079864658832 0 0 0
244 28 1 0 9.315598090943729 3.0511474614391783 6.843533615447102 0 0 0
256 29 2 0 12.60146850913213 2.6932897662356643 5.594029122018506 0 0 0
253 29 1 0 13.791846323601598 3.051090773692724 6.843419870628884 0 0 0
254 29 1 0 16.02689208667754 2.6211217118297876 4.132533640355472 0 0 0
258 29 2 0 14.837057433758858 2.9995763053886 5.376945449557921 0 0 0
265 30 2 0 17.07775222345207 2.6934128379947313 5.593987603818601 0 0 0
267 30 2 0 19.313295379709327 2.999731748797872 5.376947128787123 0 0 0
262 30 1 0 18.26808738443692 3.0512251817887566 6.8434244540910445 0 0 0
263 30 1 0 20.50308737955617 2.6212104502374007 4.132505872843314 0 0 0
274 31 2 0 -3.0640842067651266 6.567705447720433 5.5940418552929 0 0 0
272 31 1 0 0.36134119693270234 6.495566018364172 4.1325547197230375 0 0 0
276 31 2 0 -0.8285223383979552 6.8740093672759075 5.376972389025553 0 0 0
271 31 1 0 -1.8737377152910273 6.925593582765604 6.843436054339042 0 0 0
283 32 2 0 1.4121839824849232 6.5678089634723715 5.594044141853082 0 0 0
280 32 1 0 2.602519740800389 6.925692167222898 6.843477341713099 0 0 0
281 32 1 0 4.8375758470039365 6.495568827900569 4.132593109600647 0 0 0
285 32 2 0 3.6477471044113714 6.874096556417371 5.377003884772929 0 0 0
292 33 2 0 5.888415902651965 6.567734468076153 5.594068846981003 0 0 0
294 33 2 0 8.123980360478384 6.8740608642798975 5.377060688949115 0 0 0
289 33 1 0 7.078743434366069 6.925559334415434 6.843513085169496 0 0 0
290 33 1 0 9.313789795420828 6.495584474830135 4.132635089610174 0 0 0
301 34 2 0 10.36463796950813 6.56770620414834 5.594083297050005 0 0 0
298 34 1 0 11.554963061202745 6.925488800586116 6.843548214617776 0 0 0
299 34 1 0 13.789991362768653 6.495548305207056 4.132648550500907 0 0 0
303 34 2 0 12.600197807544658 6.873980120679256 5.377095984931739 0 0 0
310 35 2 0 14.840852059217383 6.567713260749014 5.5940840727103325 0 0 0
312 35 2 0 17.07639080633353 6.87402616990034 5.377095009477843 0 0 0
307 35 1 0 16.031159279054183 6.925518093743042 6.843561774374322 0 0 0
308 35 1 0 18.26614134958555 6.495541068245481 4.132612193329187 0 0 0
319 36 2 0 -5.300885221282129 10.442200119342637 5.5941136743785265 0 0 0
321 36 2 0 -3.065338809721494 10.748345526348198 5.377098005642559 0 0 0
316 36 1 0 -4.110532896891948 10.799890256482799 6.843594789469616 0 0 0
317 36 1 0 -1.8755469732994967 10.369918960589885 4.1326297103694 0 0 0
328 37 2 0 -0.824662265821795 10.442145215296884 5.594075450519666 0 0 0
325 37 1 0 0.36570723844450265 10.79994749306876 6.8434864839387135 0 0 0
326 37 1 0 2.6007602355393358 10.369954341025629 4.132588755759844 0 0 0
330 37 2 0 1.4108949763068688 10.748398271811396 5.376996965019547 0 0 0
337 38 2 0 3.651611881796093 10.442194187496636 5.5940570267279774 0 0 0
339 38 2 0 5.887161527058344 10.748493335337486 5.3770311372355355 0 0 0
334 38 1 0 4.841947943665236 10.800024211130829 6.843505596537597 0 0 0
335 38 1 0 7.076973729043852 10.370001594801751 4.132608483259075 0 0 0
346 39 2 0 8.127823213568144 10.442110796725073 5.5940485454485795 0 0 0
344 39 1 0 11.553198253287148 10.369986568221627 4.132680485794335 0 0 0
348 39 2 0 10.363367772116147 10.74845736746978 5.377093575030997 0 0 0
343 39 1 0 9.318123004234486 10.799870897056985 6.843539705750766 0 0 0
355 40 2 0 12.604037052026971 10.442147169563977 5.594138039416816 0 0 0
352 40 1 0 13.794344058275566 10.799844012397388 6.843652136438568 0 0 0
353 40 1 0 16.02933076724806 10.370017272532747 4.1326977504192755 0 0 0
357 40 2 0 14.839575488105243 10.74841950978646 5.377198666740711 0 0 0
366 41 2 0 -5.3022315045306385 14.622867492615784 5.377065728777891 0 0 0
364 41 2 0 -7.537788922391268 14.316601277005542 5.594080121415406 0 0 0
361 41 1 0 -6.347447482873853 14.674356374079514 6.843541088332781 0 0 0
362 41 1 0 -4.11244804191238 14.244415091733512 4.132617593423015 0 0 0
373 42 2 0 -3.061572716787893 14.316555966380006 5.594028141396938 0 0 0
371 42 1 0 0.36385881208669685 14.244338267164549 4.132591481464971 0 0 0
375 42 2 0 -0.8259983517024756 14.62280313803417 5.376978494210409 0 0 0
370 42 1 0 -1.8712045915232614 14.674298549653424 6.843465583893659 0 0 0
382 43 2 0 1.414703395207736 14.316584684039599 5.594054625593495 0 0 0
379 43 1 0 2.6050498880983923 14.674388338156179 6.8434838823269715 0 0 0
380 43 1 0 4.840068926575835 14.244382759352218 4.132592328048101 0 0 0
384 43 2 0 3.6502644914907716 14.622863894834461 5.377019625065952 0 0 0
391 44 2 0 5.890932544461343 14.31656199614469 5.594020888261804 0 0 0
393 44 2 0 8.126482000332853 14.622922368514558 5.3769948781392465 0 0 0
388 44 1 0 7.081257965821191 14.674413796297435 6.843458764008963 0 0 0
389 44 1 0 9.316305912912167 14.244402752977322 4.132597807039623 0 0 0
400 45 2 0 10.36714798257773 14.316537072499864 5.594037233328217 0 0 0
397 45 1 0 11.557422470243303 14.67434855441217 6.843539050632685 0 0 0
398 45 1 0 13.792456661126897 14.244456044888297 4.132646569120219 0 0 0
402 45 2 0 12.60267799487066 14.62297385251993 5.377092050647612 0 0 0
409 46 2 0 -9.774677459517008 18.191126790295613 5.593922749582745 0 0 0
406 46 1 0 -8.584344341649937 18.54892227787245 6.84339330741108 0 0 0
407 46 1 0 -6.349284313095034 18.11888544977798 4.132530529828401 0 0 0
411 46 2 0 -7.5391330719658765 18.497464758964906 5.376886224934021 0 0 0
418 47 2 0 -5.298427907388557 18.19117347518053 5.593991240328206 0 0 0
420 47 2 0 -3.062882190977903 18.49733230496334 5.377009915336943 0 0 0
415 47 1 0 -4.108100210866107 18.548859824364403 6.843508988867219 0 0 0
416 47 1 0 -1.873097278385144 18.118757622465022 4.132611800190318 0 0 0
427 48 2 0 -0.8222499282274038 18.190802123556985 5.594036439927855 0 0 0
424 48 1 0 0.36806166655167855 18.548642159438725 6.843459445701361 0 0 0
425 48 1 0 2.603121316869885 18.118760517686347 4.132592446311007 0 0 0
429 48 2 0 1.4133177350322386 18.497217169364184 5.377039943730706 0 0 0
436 49 2 0 3.6539713521871544 18.19091347616389 5.594031414821153 0 0 0
438 49 2 0 5.889548045545979 18.4972684016115 5.376961024195644 0 0 0
433 49 1 0 4.844322718026282 18.54881296292198 6.843416042958591 0 0 0
434 49 1 0 7.079354440828016 18.118756716137728 4.132541487876367 0 0 0
445 50 2 0 8.130209978623148 18.19091544801616 5.5939817292243035 0 0 0
443 50 1 0 11.555554290269328 18.11888804169559 4.132498202818573 0 0 0
447 50 2 0 10.365758029701565 18.49740859964119 5.376928926089034 0 0 0
442 50 1 0 9.320532089268287 18.548872152993052 6.843391943441768 0 0 0
234 26 2 0 3.9563269800144982 2.188725981757715 8.10159343874809 0 0 0
453 51 1 0 3.406205439614606 1.3038255723370091 9.573167078914345 0 0 0
243 27 2 0 8.432498120736968 2.1887249469732755 8.10162281776563 0 0 0
462 52 1 0 7.882357903398801 1.3038827183251314 9.573229085737509 0 0 0
252 28 2 0 12.908546405644529 2.1886501516260113 8.101339286201481 0 0 0
471 53 1 0 12.35805361824121 1.3038090349798261 9.572797592387253 0 0 0
480 54 1 0 16.83440636912191 1.3039718690944806 9.572804543675709 0 0 0
261 29 2 0 17.384653215707704 2.188891599828418 8.101307916515061 0 0 0
270 30 2 0 -0.5201297663425328 2.1888766420732386 8.101348777341018 1 0 0
489 55 1 0 21.31095488156249 1.30391482783107 9.572889199274716 0 0 0
230 26 2 0 0.8430563100178403 3.991430299954302 8.30353316036358 0 0 0
279 31 2 0 1.719261591709618 6.063228036517685 8.10141868879495 0 0 0
498 56 1 0 1.169240130790296 5.178268517353906 9.572977769020191 0 0 0
239 27 2 0 5.319250464272656 3.9914043874114573 8.303663497356943 0 0 0
507 57 1 0 5.645557548223741 5.178204404967909 9.573141879242204 0 0 0
288 32 2 0 6.195613416565332 6.063102733200684 8.10155244768411 0 0 0
297 33 2 0 10.671862743123198 6.063003913292753 8.10159841069628 0 0 0
248 28 2 0 9.795545213748214 3.9913322964315157 8.303646712151902 0 0 0
516 58 1 0 10.121811437652077 5.178092225304283 9.573224089113033 0 0 0
257 29 2 0 14.27175576403559 3.9911029774410256 8.30364910471847 0 0 0
306 34 2 0 15.147879833398811 6.06303715396322 8.101486770025927 0 0 0
525 59 1 0 14.597503583421837 5.178161180099994 9.572999297324507 0 0 0
315 35 2 0 -2.7572473602240515 6.0633529135222 8.10132496369838 1 0 0
266 30 2 0 18.748162018071042 3.9911854648054703 8.303611168197026 0 0 0
534 60 1 0 19.073732518892058 5.178377716774915 9.572823223658844 0 0 0
275 31 2 0 -1.3936737704031248 7.865605836629029 8.30358756622644 0 0 0
543 61 1 0 -1.067961922622165 9.052698798551893 9.572869294168918 0 0 0
324 36 2 0 -0.517758020350459 9.937629129373466 8.101360154708793 0 0 0
284 32 2 0 3.0823719246487524 7.865854806133045 8.303656040396982 0 0 0
552 62 1 0 3.408645922292485 9.052701294661341 9.573072852324746 0 0 0
333 37 2 0 3.9587075250704418 9.937603440637497 8.101489146949534 0 0 0
293 33 2 0 7.558706662094811 7.865709342193035 8.303645199164825 0 0 0
561 63 1 0 7.8850739050911764 9.052433796945804 9.573205124330947 0 0 0
342 38 2 0 8.435058746994049 9.937381373045072 8.101602705665746 0 0 0
302 34 2 0 12.034876525816347 7.865650898653475 8.303689289822692 0 0 0
570 64 1 0 12.361080082318612 9.052438238301827 9.573246261068462 0 0 0
351 39 2 0 12.911159794491088 9.937365091836508 8.1016422166957 0 0 0
311 35 2 0 16.510973297980147 7.8655928263334305 8.303808514167097 0 0 0
579 65 1 0 16.836981126470167 9.052593814481677 9.573155106261808 0 0 0
360 40 2 0 -4.993685370481035 9.937372109259584 8.10159956917978 1 0 0
320 36 2 0 -3.630730080803489 11.740005465279602 8.303829617019868 0 0 0
588 66 1 0 -3.304816759591542 12.927086868737952 9.573105379024266 0 0 0
329 37 2 0 0.8458178336647906 11.739881364426898 8.303665962142805 0 0 0
597 67 1 0 1.1712455936514237 12.927176702903747 9.572761556224613 0 0 0
338 38 2 0 5.321953129545532 11.740112762645003 8.303656261371062 0 0 0
606 68 1 0 5.648011331430342 12.927057666636529 9.57299739494961 0 0 0
347 39 2 0 9.798188283664846 11.739939864032655 8.303656217930241 0 0 0
615 69 1 0 10.124225715412987 12.926851628842092 9.573068545176156 0 0 0
356 40 2 0 14.274347674555187 11.739892745238112 8.303815102637575 0 0 0
624 70 1 0 14.600164573267094 12.92701168172449 9.573063974884814 0 0 0
365 41 2 0 -5.867596048172283 15.614461667663154 8.303744434674446 0 0 0
633 71 1 0 -5.541577904139008 16.801431760328295 9.573124221129028 0 0 0
369 41 2 0 -2.754237193847449 13.811765046541165 8.10153857185068 0 0 0
374 42 2 0 -1.3913102327321403 15.614370430688158 8.30365776292332 0 0 0
642 72 1 0 -1.0657235470598716 16.8015529533998 9.572874915817284 0 0 0
378 42 2 0 1.7215032267389005 13.812099764723252 8.1013143266322 0 0 0
383 43 2 0 3.085157868564954 15.614315138746841 8.303672257923182 0 0 0
651 73 1 0 3.4106378752657225 16.801603899999108 9.572760560230861 0 0 0
387 43 2 0 6.198042657183983 13.81200006349044 8.10145273914065 0 0 0
392 44 2 0 7.561315529132999 15.614478116052004 8.303581910460357 0 0 0
660 74 1 0 7.887232426250698 16.801496018495868 9.57287537066712 0 0 0
396 44 2 0 10.6743051289003 13.811795993091428 8.101519366899259 0 0 0
401 45 2 0 12.037353197394516 15.614433516206118 8.303706391320985 0 0 0
669 75 1 0 12.36341840137642 16.801434899465754 9.573016895532504 0 0 0
405 45 2 0 -7.230614360652162 13.811823286908265 8.101515899576256 1 0 0
410 46 2 0 -8.10469102705531 19.48911158405196 8.303641801496639 0 0 0
414 46 2 0 -4.991016994463882 17.686146761268695 8.10156632303148 0 0 0
419 47 2 0 -3.6284592212810116 19.48905110175109 8.30377969802889 0 0 0
423 47 2 0 -0.5153948953737031 17.68640566820885 8.101377975153058 0 0 0
428 48 2 0 0.8482549001002722 19.48856782857653 8.303583899010919 0 0 0
432 48 2 0 3.9608382842768126 17.686541421365348 8.101302097162565 0 0 0
437 49 2 0 5.324389753628303 19.488815554513923 8.303569473148269 0 0 0
441 49 2 0 8.437258658673521 17.686456810442934 8.101340104232202 0 0 0
446 50 2 0 9.800498714703492 19.48897504102177 8.303530767818884 0 0 0
450 50 2 0 -9.467194031126917 17.686152797334252 8.101453589070823 1 0 0
458 51 2 0 2.7991193248412083 2.169357744078069 11.038345513687446 0 0 0
452 51 1 0 2.0304039098235926 3.1037608874234275 12.353754259839768 0 0 0
467 52 2 0 7.275174550336828 2.1693366722367373 11.03842120460363 0 0 0
461 52 1 0 6.506829346916719 3.1038265518519923 12.354052373820352 0 0 0
470 53 1 0 10.983478799858531 3.1038952750736697 12.354318158546153 0 0 0
476 53 2 0 11.750289886853562 2.168972211870977 11.037859550032877 0 0 0
485 54 2 0 16.22698268293693 2.169234458677984 11.038010687082288 0 0 0
479 54 1 0 15.45870097385048 3.103635418812264 12.353777644069716 0 0 0
494 55 2 0 20.703914012217275 2.1694610620147348 11.038077485830442 0 0 0
488 55 1 0 19.934726312750346 3.1035897570529203 12.353338113652121 0 0 0
497 56 1 0 -0.2068995551647907 6.978005769795577 12.353461813889659 0 0 0
503 56 2 0 0.562166551892189 6.043799691095621 11.0381681193949 0 0 0
457 51 2 0 1.5612250593929209 4.02999735976603 10.862904959120986 0 0 0
512 57 2 0 5.038434338025612 6.043730222330188 11.03829773588242 0 0 0
506 57 1 0 4.269795992287061 6.978110624542642 12.353764982709354 0 0 0
466 52 2 0 6.03764416677704 4.030112677288448 10.863216286558597 0 0 0
521 58 2 0 9.514272458330074 6.043362496078281 11.03836926079503 0 0 0
475 53 2 0 10.514389970280856 4.030403257419506 10.863537276208994 0 0 0
515 58 1 0 8.746555466113568 6.978180421424944 12.354229665836034 0 0 0
530 59 2 0 13.989841140380767 6.0433630365578885 11.038112611894498 0 0 0
524 59 1 0 13.222765625336008 6.978320335371098 12.354363435734122 0 0 0
484 54 2 0 14.989368845135205 4.029892399625352 10.862958065093565 0 0 0
539 60 2 0 18.466378267261724 6.043673769916505 11.038022862436218 0 0 0
493 55 2 0 19.465375366387736 4.029739286525007 10.86248704782841 0 0 0
533 60 1 0 17.698127679787508 6.977993469537612 12.353856606704475 0 0 0
502 56 2 0 -0.6762480028706375 7.904145944705116 10.862602722572632 0 0 0
548 61 2 0 -1.6753119219526404 9.918022325674318 11.038057263008547 0 0 0
557 62 2 0 2.801679429877921 9.91827045129324 11.038326250304468 0 0 0
511 57 2 0 3.8005374418693068 7.904334594141014 10.86293425709389 0 0 0
520 58 2 0 8.277487497969085 7.904524975564729 10.863366711627087 0 0 0
566 63 2 0 7.277813693378508 9.917883910032161 11.038368044005274 0 0 0
529 59 2 0 12.753628856956844 7.90470885380259 10.863529484346124 0 0 0
575 64 2 0 11.753512954089706 9.917739895944365 11.038369865115065 0 0 0
584 65 2 0 16.22960858890312 9.91795200090704 11.038351408469968 0 0 0
538 60 2 0 17.228668492613902 7.904239668199583 10.863082094045875 0 0 0
547 61 2 0 -2.91337794050215 11.778460183095007 10.862856104737045 0 0 0
542 61 1 0 -2.443960736737058 10.85224535641715 12.353646244608537 0 0 0
551 62 1 0 2.0317741937877827 10.852229778851628 12.353175423238614 0 0 0
556 62 2 0 1.5623736921195535 11.778235804473521 10.862272826640726 0 0 0
560 63 1 0 6.508858882514123 10.852285605590218 12.353595956724714 0 0 0
565 63 2 0 6.039700310237008 11.778464994526265 10.862701431367789 0 0 0
569 64 1 0 10.985398854240602 10.852477655296267 12.3540125194884 0 0 0
574 64 2 0 10.516304159568655 11.778704455084863 10.86308544866316 0 0 0
578 65 1 0 15.46101225477927 10.85239650515632 12.353832683416986 0 0 0
583 65 2 0 14.991766045907319 11.778574191339107 10.862934488808332 0 0 0
593 66 2 0 -3.912216951006922 13.792391410126573 11.038320263494615 0 0 0
587 66 1 0 -4.6807118524784626 14.726795606878389 12.353901622924546 0 0 0
592 66 2 0 -5.149911337270428 15.653067243478572 10.863067917327328 0 0 0
596 67 1 0 -0.20487283586755484 14.72673217188723 12.353418188233 0 0 0
601 67 2 0 -0.6742593331424314 15.652932533764663 10.86260373508793 0 0 0
602 67 2 0 0.5640429577757515 13.792627335090046 11.037922265931474 0 0 0
611 68 2 0 5.041025939986998 13.79260784468784 11.038238857924863 0 0 0
605 68 1 0 4.271046358397589 14.726506329467115 12.353088882924851 0 0 0
610 68 2 0 3.8017129463773145 15.652573530017719 10.862202131939448 0 0 0
619 69 2 0 8.278963907641428 15.652941199139978 10.862597093727985 0 0 0
620 69 2 0 9.516903306706862 13.792305480760785 11.038180880819883 0 0 0
614 69 1 0 8.748079187122578 14.726734147214682 12.353500672844039 0 0 0
629 70 2 0 13.992794615624938 13.792422084948091 11.038195347619421 0 0 0
623 70 1 0 13.224155656314085 14.726730002737218 12.35374275410155 0 0 0
628 70 2 0 12.754923853088249 15.652964431525689 10.862891362903468 0 0 0
638 71 2 0 -6.149089469549419 17.666750326547184 11.03825622362763 0 0 0
632 71 1 0 -6.9171177000161865 18.601328643356787 12.354047711536552 0 0 0
637 71 2 0 -7.386196443569787 19.527690464456445 10.863214391631423 0 0 0
646 72 2 0 -2.9100183202633696 19.527837797282395 10.86334473521643 0 0 0
647 72 2 0 -1.673191764031069 17.666816275324127 11.03802603381489 0 0 0
641 72 1 0 -2.440876831484972 18.601375048576163 12.354105354333488 0 0 0
656 73 2 0 2.803490780338084 17.667046203595017 11.037970062610238 0 0 0
655 73 2 0 1.5650443221780266 19.527275244956765 10.862616504097424 0 0 0
650 73 1 0 2.0344607952664244 18.601103851706817 12.353437775389189 0 0 0
665 74 2 0 7.280149716153868 17.666989402392446 11.038078480175486 0 0 0
659 74 1 0 6.510825207216321 18.601089519154804 12.353269615877284 0 0 0
664 74 2 0 6.041524535384072 19.527258124777774 10.862425477640187 0 0 0
668 75 1 0 10.98742476119218 18.601254513740848 12.353596909003187 0 0 0
673 75 2 0 10.518273104761391 19.52750372720961 10.862736207373196 0 0 0
674 75 2 0 11.756148496519197 17.66689451575909 11.03817096740626 0 0 0
454 51 2 0 -1.271139668344914 3.074049890316236 13.70273884771861 0 0 0
451 51 1 0 -0.2141588547278394 2.9817859936395297 15.182613435656734 0 0 0
456 51 2 0 0.9506115219277054 2.94800495712811 13.797492196973767 0 0 0
465 52 2 0 5.426989295160033 2.9480085056499576 13.797769657933731 0 0 0
463 52 2 0 3.2052503816194253 3.074701817368027 13.70359991712975 0 0 0
460 52 1 0 4.262543932436369 2.982113410159721 15.183212464541676 0 0 0
472 53 2 0 7.681536810622243 3.0751400111217766 13.704098772293587 0 0 0
474 53 2 0 9.903284373489337 2.9479767176841682 13.797851444857212 0 0 0
469 53 1 0 8.739051293371787 2.9822746187332445 15.183519886855649 0 0 0
481 54 2 0 12.157515952819146 3.076524266675696 13.705220199214061 0 0 0
478 54 1 0 13.21566027731535 2.9825586982312355 15.184064760195398 0 0 0
483 54 2 0 14.37916376109092 2.947805474745654 13.797708108533811 0 0 0
490 55 2 0 16.633618891099477 3.0749341449758503 13.70363887304035 0 0 0
492 55 2 0 18.855314867279702 2.947829160382747 13.797317919523394 0 0 0
487 55 1 0 17.691165176345756 2.9819939309923216 15.183026940901996 0 0 0
499 56 2 0 -3.508036479859611 6.949334474722432 13.70369261148775 0 0 0
501 56 2 0 -1.2863425197767013 6.822291300610351 13.79742552807335 0 0 0
496 56 1 0 -2.4505317450812605 6.856553485351201 15.183117607503437 0 0 0
508 57 2 0 0.9683147077920153 6.948584371426413 13.702909439516102 0 0 0
505 57 1 0 2.025355854792352 6.856281847868324 15.182736174575503 0 0 0
510 57 2 0 3.1900663265668423 6.8223772819096835 13.797544373936752 0 0 0
517 58 2 0 5.444713552455497 6.949096346928325 13.703551803282341 0 0 0
519 58 2 0 7.666472154481868 6.822380176635549 13.797804362458653 0 0 0
514 58 1 0 6.501958029131741 6.856615342617166 15.183208863008787 0 0 0
526 59 2 0 9.920926678917999 6.950159648572435 13.70469207454406 0 0 0
523 59 1 0 10.978690498997533 6.856956140532017 15.18388356914937 0 0 0
528 59 2 0 12.142675081754748 6.822507743728401 13.79796423840681 0 0 0
535 60 2 0 14.39697150557944 6.950829354550275 13.705072220693776 0 0 0
537 60 2 0 16.618602287703624 6.8221837529029985 13.79778187628991 0 0 0
532 60 1 0 15.454983556799736 6.857046426216813 15.184049374152899 0 0 0
544 61 2 0 -5.7451086812654735 10.823541475236995 13.703562393185095 0 0 0
546 61 2 0 -3.52350210517636 10.69645132954332 13.797543195109398 0 0 0
541 61 1 0 -4.68776980566874 10.731036322245615 15.183172543641664 0 0 0
553 62 2 0 -1.2689715072784653 10.82327210453079 13.703362717052755 0 0 0
550 62 1 0 -0.2116159408382831 10.730847633808608 15.182942659596911 0 0 0
555 62 2 0 0.9526550064733568 10.696548065431582 13.79734272777035 0 0 0
562 63 2 0 3.2074262936063658 10.822072577054497 13.702077688630446 0 0 0
564 63 2 0 5.429129944441553 10.696560556227615 13.79737348007145 0 0 0
559 63 1 0 4.264103166610721 10.730462796414116 15.182260820257596 0 0 0
571 64 2 0 7.6837789211865655 10.823186220568548 13.703333386890705 0 0 0
573 64 2 0 9.905457361057064 10.696654896572415 13.797673944469025 0 0 0
568 64 1 0 8.740947234097469 10.73100221592954 15.183080138725163 0 0 0
580 65 2 0 12.159890339720347 10.824309015985488 13.704298703847702 0 0 0
577 65 1 0 13.217486771215057 10.731351245590664 15.183675369303892 0 0 0
582 65 2 0 14.381488533337063 10.696698322273825 13.797774458437903 0 0 0
591 66 2 0 -5.7604218131801765 14.571084402173039 13.797716084488062 0 0 0
589 66 2 0 -7.98208808464253 14.697847131372917 13.703584836788469 0 0 0
586 66 1 0 -6.924804399637195 14.60544798707165 15.18323522944712 0 0 0
598 67 2 0 -3.5058905833611824 14.697910051055418 13.703801047194187 0 0 0
600 67 2 0 -1.2842677091883001 14.570846598149087 13.79741568142682 0 0 0
595 67 1 0 -2.4483302452139366 14.605301269242023 15.18322255917014 0 0 0
607 68 2 0 0.9702637700379861 14.697469248464408 13.702958081505123 0 0 0
604 68 1 0 2.027462868543001 14.605069022704377 15.182687936023328 0 0 0
609 68 2 0 3.1918586788879413 14.570768090017676 13.797201559447892 0 0 0
616 69 2 0 5.446615419631257 14.696336060445313 13.702062162441258 0 0 0
618 69 2 0 7.668303356443197 14.570908395798034 13.797246134991742 0 0 0
613 69 1 0 6.503350598138203 14.604783811905714 15.182203285164952 0 0 0
625 70 2 0 9.922878866891265 14.697795042673038 13.703372014774502 0 0 0
622 70 1 0 10.980097612648345 14.605377233749197 15.183084976558433 0 0 0
627 70 2 0 12.144496907235697 14.570886529762351 13.797569059012563 0 0 0
634 71 2 0 -10.21878342518198 18.572113859121853 13.703383239547485 0 0 0
631 71 1 0 -9.161585919672824 18.479683296957266 15.183084933411546 0 0 0
636 71 2 0 -7.9970500569412195 18.445543548129937 13.797723515450794 0 0 0
643 72 2 0 -5.742559521655947 18.572833080955604 13.704270453454711 0 0 0
645 72 2 0 -3.520835874986333 18.44546039317214 13.797755925574592 0 0 0
640 72 1 0 -4.68489745355258 18.47985597357656 15.183567373143347 0 0 0
652 73 2 0 -1.2664630679013327 18.573180171781534 13.704518083465501 0 0 0
649 73 1 0 -0.2085772289111551 18.47986223435681 15.183624658285343 0 0 0
654 73 2 0 0.9551491610999567 18.445212707801332 13.797491975322451 0 0 0
661 74 2 0 3.2096883197571433 18.571729132322897 13.702892157541811 0 0 0
663 74 2 0 5.431355839653861 18.445267450998944 13.797203054996906 0 0 0
658 74 1 0 4.2668898826140005 18.479325216497763 15.182606954369152 0 0 0
670 75 2 0 7.686009689028426 18.57151154604497 13.702706778658932 0 0 0
672 75 2 0 9.907724853232175 18.44550352956561 13.797410228472884 0 0 0
667 75 1 0 8.74300444712709 18.479331677366446 15.18258177024616 0 0 0
459 51 2 0 3.7442498502530923 1.9621525674166016 16.59015819414104 0 0 0
678 76 1 0 3.07651641285127 1.0751591392572737 18.023023768437398 0 0 0
468 52 2 0 8.220526293943056 1.9622337635581828 16.59030522383302 0 0 0
687 77 1 0 7.552930444316654 1.0755724378820664 18.023390719538423 0 0 0
477 53 2 0 12.696808029939493 1.9620466267436778 16.590371004127892 0 0 0
696 78 1 0 12.029126748737903 1.0755604438475224 18.02349584066993 0 0 0
705 79 1 0 16.505001813263043 1.0747610139193013 18.02258267104686 0 0 0
486 54 2 0 17.172789767317465 1.9618007817240577 16.58976209843807 0 0 0
495 55 2 0 21.648828748872273 1.9619277476248862 16.58971010714868 0 0 0
714 80 1 0 20.98112478712343 1.0748148119004488 18.022542529429362 0 0 0
455 51 2 0 0.22757825322181874 3.9813231902241393 16.634121478421026 0 0 0
504 56 2 0 1.5071625885695232 5.836383446507173 16.589772630942253 0 0 0
723 81 1 0 0.8394801210186669 4.949243204463334 18.02258195953083 0 0 0
464 52 2 0 4.704335909275043 3.981321886840217 16.6350088840708 0 0 0
732 82 1 0 5.315952965728955 4.9497841385744765 18.023091577210245 0 0 0
513 57 2 0 5.9835879991073995 5.8366874657707974 16.59014956747545 0 0 0
473 53 2 0 9.18087160148077 3.981141033854165 16.635601965137532 0 0 0
522 58 2 0 10.459974162033852 5.8366648352065855 16.59040430696563 0 0 0
741 83 1 0 9.792257790319365 4.949979739319885 18.023421531051117 0 0 0
482 54 2 0 13.65778747726396 3.9804736724530554 16.63686323125075 0 0 0
531 59 2 0 14.936179816576026 5.836682562320554 16.59048524469503 0 0 0
750 84 1 0 14.268704022098268 4.950461708158287 18.02380388654447 0 0 0
491 55 2 0 18.133062263721676 3.9808453018985364 16.63508531821686 0 0 0
540 60 2 0 19.41211010554775 5.83643381367542 16.589864880051884 0 0 0
759 85 1 0 18.7445307733213 4.949672745111576 18.022890692147758 0 0 0
500 56 2 0 -2.008850945884522 7.855465644496122 16.635210922111646 0 0 0
768 86 1 0 -1.3972563294987534 8.824168573007002 18.02305490889159 0 0 0
549 61 2 0 -0.729809410035503 9.710979911694166 16.58999407612428 0 0 0
509 57 2 0 2.4669769005099926 7.8557563015676575 16.634350491052334 0 0 0
777 87 1 0 3.0788096091758383 8.823866170492208 18.022679076126472 0 0 0
558 62 2 0 3.7462726425845814 9.710983256683138 16.58976464973504 0 0 0
518 58 2 0 6.943497263802003 7.8559106180042 16.63503514974132 0 0 0
786 88 1 0 7.555179319130425 8.824280055956477 18.023169193057313 0 0 0
567 63 2 0 8.22274687038785 9.711222865165823 16.59020825464525 0 0 0
527 59 2 0 11.420451244935876 7.8554487223214835 16.636306465624056 0 0 0
795 89 1 0 12.031685105689029 8.824777572297657 18.023745793521716 0 0 0
576 64 2 0 12.699141198373443 9.71129300702416 16.59055033500061 0 0 0
536 60 2 0 15.89690536780652 7.855157986455315 16.6367691366557 0 0 0
804 90 1 0 16.507972089319704 8.825030802715885 18.023755419185576 0 0 0
585 65 2 0 17.175144592606557 9.711348944044428 16.590358088424846 0 0 0
545 61 2 0 -4.2461785064584 11.730414408600673 16.634945869435345 0 0 0
813 91 1 0 -3.634196508844743 12.698464169236027 18.02317281484849 0 0 0
554 62 2 0 0.22998750279869357 11.73020070350399 16.63471291469802 0 0 0
822 92 1 0 0.8419545216646414 12.69834436511139 18.022904534653925 0 0 0
563 63 2 0 4.705477125179124 11.73070308393749 16.63334173091228 0 0 0
831 93 1 0 5.317884783281516 12.697771730594436 18.022356549117823 0 0 0
572 64 2 0 9.182300312207376 11.730630857457475 16.634718837111667 0 0 0
840 94 1 0 9.79434092085166 12.698506005997423 18.023134635217442 0 0 0
581 65 2 0 13.659051528463436 11.73031406152819 16.635818603978628 0 0 0
849 95 1 0 14.270801938554515 12.69901137532158 18.023588949108515 0 0 0
590 66 2 0 -6.483187378968378 15.604935892400077 16.634894587355195 0 0 0
858 96 1 0 -5.871097937626081 16.572816045470713 18.02324072910535 0 0 0
594 66 2 0 -2.9665362299978533 13.585357478653286 16.59021723675729 0 0 0
599 67 2 0 -2.006661020222797 15.604485723780337 16.635131226108193 0 0 0
867 97 1 0 -1.3948583346403656 16.57279844456318 18.0232125342183 0 0 0
603 67 2 0 1.5094689712901672 13.585285083374012 16.58990818463887 0 0 0
608 68 2 0 2.4690650061797346 15.604644504456886 16.634284819568265 0 0 0
876 98 1 0 3.081205126627868 16.572481956360395 18.02267605299469 0 0 0
612 68 2 0 5.985605611965439 13.585192848576481 16.589668028525388 0 0 0
617 69 2 0 6.944631889169619 15.605072403975448 16.63329033344636 0 0 0
885 99 1 0 7.557115639952611 16.572042423450355 18.022360862383124 0 0 0
621 69 2 0 10.462018014759263 13.585542095385401 16.590251065581157 0 0 0
626 70 2 0 11.421509679984121 15.604993121959307 16.634737541827047 0 0 0
894 100 1 0 12.033656249605185 16.57287058692565 18.023100734535316 0 0 0
630 70 2 0 14.938192302586696 13.585705447202256 16.590429598637165 0 0 0
635 71 2 0 -8.71983398788622 19.47911837980271 16.634713829296384 0 0 0
639 71 2 0 -5.203329673849024 17.459749106038455 16.590341072104216 0 0 0
644 72 2 0 -4.242973668741217 19.4786853903953 16.635657310447197 0 0 0
648 72 2 0 -0.7271184085592426 17.459604477610146 16.590254808664277 0 0 0
653 73 2 0 0.23333223709166068 19.47839547118332 16.635999295502206 0 0 0
657 73 2 0 3.74883917197487 17.459492994201295 16.589749162701096 0 0 0
662 74 2 0 4.708684237765304 19.47878373360293 16.634200023153934 0 0 0
666 74 2 0 8.224970441709756 17.459451325596238 16.589713057396978 0 0 0
671 75 2 0 9.184644142187253 19.479002242598128 16.63403379632177 0 0 0
675 75 2 0 12.701323631737973 17.459853377540615 16.59017742534673 0 0 0
683 76 2 0 2.5031117806653485 1.9400682831756058 19.517870281042565 0 0 0
677 76 1 0 1.759752205277033 2.88598024372544 20.823680538006894 0 0 0
692 77 2 0 6.979855215117538 1.9404584840203791 19.518331815935248 0 0 0
686 77 1 0 6.235888543497742 2.886129627421614 20.823897987257737 0 0 0
695 78 1 0 10.711999077591717 2.8859750550710777 20.8239332154379 0 0 0
701 78 2 0 11.45629410327409 1.9403928241705928 19.518538960642033 0 0 0
710 79 2 0 15.931493060213205 1.939535071241028 19.51746230944515 0 0 0
704 79 1 0 15.18811158275203 2.8852662456832037 20.823361914308656 0 0 0
719 80 2 0 20.407485880015866 1.9397833208985706 19.517278770819715 0 0 0
713 80 1 0 19.66450219640007 2.8856451809563244 20.823370250355207 0 0 0
722 81 1 0 -0.4771915482453439 6.7599946757483025 20.823411710770777 0 0 0
728 81 2 0 0.26586195439273635 5.814140228100378 19.51735560502892 0 0 0
682 76 2 0 1.339049873315265 3.8644720729025606 19.36398641209435 0 0 0
737 82 2 0 4.7425812617334255 5.814712176338965 19.517915417639028 0 0 0
731 82 1 0 3.999081057275543 6.760514990910683 20.823712659679423 0 0 0
691 77 2 0 5.814993752939417 3.864443264757356 19.364134197980952 0 0 0
746 83 2 0 9.219078145536406 5.81490183035467 19.518302508558207 0 0 0
700 78 2 0 10.29080115239256 3.8641081510037494 19.364135140645605 0 0 0
740 83 1 0 8.475219199855644 6.7605880448894515 20.82393602249773 0 0 0
755 84 2 0 13.6962140000642 5.815246156243193 19.518950962127107 0 0 0
749 84 1 0 12.951283270403213 6.7605784323645715 20.82408875536456 0 0 0
709 79 2 0 14.766158051610002 3.863259933043319 19.363601553388108 0 0 0
718 80 2 0 19.24322729904893 3.863978088527588 19.36368271172206 0 0 0
764 85 2 0 18.171389394922667 5.81453342888598 19.517803659454735 0 0 0
758 85 1 0 17.427500297016223 6.760071633570505 20.823501080884604 0 0 0
727 81 2 0 -0.8983796206069743 7.738436780690346 19.363772622684547 0 0 0
773 86 2 0 -1.9702976241438377 9.688977239952246 19.518062499461852 0 0 0
782 87 2 0 2.5052754043290593 9.68875106606895 19.517492592137668 0 0 0
736 82 2 0 3.578389935324843 7.739021176795356 19.364007242015777 0 0 0
745 83 2 0 8.054383765567797 7.739010195422062 19.3642311378374 0 0 0
791 88 2 0 6.98181624954355 9.68916601250411 19.518040853601356 0 0 0
754 84 2 0 12.529884808558034 7.73849902482611 19.364187403087396 0 0 0
800 89 2 0 11.458836911116002 9.689802300612476 19.5186629793599 0 0 0
809 90 2 0 15.935550782784142 9.689912366433655 19.518881163349363 0 0 0
763 85 2 0 17.005737888791426 7.738087560679045 19.363697656057607 0 0 0
772 86 2 0 -3.134939814117734 11.613155939116645 19.36420157613169 0 0 0
767 86 1 0 -2.713923053741756 10.634691252057742 20.823815129932882 0 0 0
776 87 1 0 1.7623092165064944 10.634609499721027 20.82359867389645 0 0 0
781 87 2 0 1.3413828474690044 11.61321691909139 19.3640214574204 0 0 0
785 88 1 0 6.238607347687502 10.635124094512774 20.823922263751474 0 0 0
790 88 2 0 5.818353455280841 11.613910851222437 19.36433562546178 0 0 0
794 89 1 0 10.714686893461922 10.635300665794025 20.82422717777922 0 0 0
799 89 2 0 10.293920686650406 11.61374028243096 19.36455564414296 0 0 0
803 90 1 0 15.190851935360573 10.635212805452172 20.824194734531076 0 0 0
808 90 2 0 14.76966286532268 11.613363913935705 19.364413753815075 0 0 0
818 91 2 0 -4.2073912502766895 13.563335335187206 19.51812672176695 0 0 0
817 91 2 0 -5.371702342055269 15.487701259151066 19.364403150444804 0 0 0
812 91 1 0 -4.950805401109656 14.509130289899817 20.823960175886203 0 0 0
826 92 2 0 -0.8958623671364914 15.487328777683816 19.36415288714473 0 0 0
821 92 1 0 -0.4746567096860838 14.508928276652796 20.823759628573804 0 0 0
827 92 2 0 0.2686971265172334 13.563169325312664 19.517864084474116 0 0 0
836 93 2 0 4.743943451365362 13.56267471685639 19.51707272886234 0 0 0
835 93 2 0 3.5808590750881564 15.487598522238578 19.36395384255434 0 0 0
830 93 1 0 4.001662609207871 14.508809967180973 20.823446501904638 0 0 0
844 94 2 0 8.0575813922748 15.488270779589937 19.364420985311284 0 0 0
845 94 2 0 9.220899332168202 13.563506950575933 19.517935612455616 0 0 0
839 94 1 0 8.477922398338784 14.509469122509934 20.82396286376301 0 0 0
854 95 2 0 13.697895784793573 13.564070283976102 19.518502076254087 0 0 0
853 95 2 0 12.533238857158102 15.488123199371461 19.364530002901795 0 0 0
848 95 1 0 12.954028422602773 14.509650913971926 20.824182942841237 0 0 0
862 96 2 0 -7.60862177748215 19.362060209733407 19.36422323681876 0 0 0
863 96 2 0 -6.444393708318937 17.43768006189929 19.518169399405643 0 0 0
857 96 1 0 -7.187849888583891 18.38358138733361 20.823907059513264 0 0 0
871 97 2 0 -3.1329416694425323 19.361661904567416 19.364056313152282 0 0 0
872 97 2 0 -1.9680191443138837 17.437671684213463 19.518155228054408 0 0 0
866 97 1 0 -2.711745041578382 18.383420851941025 20.82381357353049 0 0 0
880 98 2 0 1.3428855419087655 19.36120413774585 19.36385125204329 0 0 0
881 98 2 0 2.5078034996435807 17.437236074663506 19.51764096526423 0 0 0
875 98 1 0 1.7644755393444436 18.383018624432076 20.82353635729402 0 0 0
889 99 2 0 5.819949251038109 19.36177103194682 19.363832504014294 0 0 0
890 99 2 0 6.983173855266855 17.436964846677007 19.517070328503888 0 0 0
884 99 1 0 6.240837032445095 18.383119984535035 20.82338707059804 0 0 0
898 100 2 0 10.296415679549172 19.36231870127311 19.364139769670857 0 0 0
893 100 1 0 10.717044928984718 18.383771305952294 20.8238126542275 0 0 0
899 100 2 0 11.460287879678372 17.43789177532965 19.51791272192942 0 0 0
676 76 1 0 -0.4700624333382771 2.535580993450679 23.56513893536821 0 0 0
679 76 2 0 20.857135225886697 2.5958349427611482 22.103379888152592 -1 0 0
681 76 2 0 0.7200423713831807 2.8486280071882644 22.301189963061 0 0 0
685 77 1 0 4.006184254314966 2.535521719093984 23.565263527028783 0 0 0
690 77 2 0 5.196183486826461 2.848913095575871 22.301352047455527 0 0 0
688 77 2 0 2.952227256309996 2.595403110078009 22.103595096803282 0 0 0
697 78 2 0 7.428367708375047 2.5951923497345293 22.103639537659657 0 0 0
694 78 1 0 8.482332158360629 2.535437872388944 23.56528794765533 0 0 0
699 78 2 0 9.672370422973067 2.848816648089121 22.30141493203384 0 0 0
703 79 1 0 12.958619070612102 2.5352574167331423 23.565079668617717 0 0 0
706 79 2 0 11.904595853113413 2.5949173356373567 22.103473648093182 0 0 0
708 79 2 0 14.148588000586694 2.8481313412918863 22.300955723213356 0 0 0
715 80 2 0 16.380847348896115 2.595672665075567 22.10326047456273 0 0 0
712 80 1 0 17.434774459829892 2.535422780593456 23.565019635579247 0 0 0
717 80 2 0 18.62488865439277 2.848202624737712 22.30097075684754 0 0 0
724 81 2 0 18.620235070558127 6.4699652350926975 22.103222650754812 -1 0 0
721 81 1 0 -2.706996644106946 6.4098044218947585 23.565006695657964 0 0 0
726 81 2 0 -1.5168597953263445 6.722528212238376 22.300971662059876 0 0 0
733 82 2 0 0.7153879375512611 6.470087891050413 22.103432664601318 0 0 0
730 82 1 0 1.7692974571895352 6.409995310926044 23.565162415368707 0 0 0
735 82 2 0 2.9593591082373982 6.723111388227422 22.301211085028328 0 0 0
742 83 2 0 5.191547766718571 6.46984821337933 22.103606066446385 0 0 0
739 83 1 0 6.245490116688091 6.409966110838935 23.565285431107206 0 0 0
744 83 2 0 7.435493479625075 6.723349123996293 22.301380137861504 0 0 0
748 84 1 0 10.721632751833823 6.409903880206841 23.565347322305165 0 0 0
751 84 2 0 9.66764868662186 6.469606071833534 22.10372340526701 0 0 0
753 84 2 0 11.911659798724726 6.723467066166793 22.301529925960867 0 0 0
760 85 2 0 14.14395673730965 6.469252831495355 22.103421222495616 0 0 0
757 85 1 0 15.197926099127223 6.409678661329117 23.565066155727692 0 0 0
762 85 2 0 16.387921590949432 6.722797970942477 22.30104477922741 0 0 0
769 86 2 0 16.383546042372494 10.343699108131657 22.103491628865484 -1 0 0
766 86 1 0 -4.9436728837968555 10.284080214036 23.56518583589345 0 0 0
771 86 2 0 -3.753588210826635 10.59733257437838 22.301312510152915 0 0 0
778 87 2 0 -1.5212988354171684 10.343908045087677 22.1034798496925 0 0 0
775 87 1 0 -0.46737771906985887 10.28412073608212 23.565158822485355 0 0 0
780 87 2 0 0.7226455563817715 10.597147325451832 22.301148306466914 0 0 0
784 88 1 0 4.008788615278774 10.284362957471991 23.565272714493318 0 0 0
787 88 2 0 2.9548939409519965 10.344390218721074 22.10354601296108 0 0 0
789 88 2 0 5.198849399661531 10.59769428978361 22.301403437404144 0 0 0
796 89 2 0 7.4310170150097505 10.344137002389717 22.103812072395485 0 0 0
793 89 1 0 8.484970909834946 10.284380253439654 23.56544567637051 0 0 0
798 89 2 0 9.674990172019903 10.598006871630556 22.301654722724976 0 0 0
802 90 1 0 12.961182547656676 10.28426099124239 23.56537980529378 0 0 0
805 90 2 0 11.90721578625532 10.34386315735777 22.1037692480558 0 0 0
807 90 2 0 14.151203904046127 10.597984267726169 22.301619175501934 0 0 0
816 91 2 0 -5.9904509370643515 14.471898392336191 22.30145733874353 0 0 0
811 91 1 0 -7.180497993409581 14.158602506296244 23.565336544359177 0 0 0
814 91 2 0 14.146656727434051 14.21836425097784 22.103696913243095 -1 0 0
823 92 2 0 -3.758240023672254 14.218236599713185 22.103667704628727 0 0 0
825 92 2 0 -1.5142309765245001 14.471642950376136 22.301322219869903 0 0 0
820 92 1 0 -2.704252460807764 14.158484119196439 23.565282747162374 0 0 0
832 93 2 0 0.7180579839628647 14.218419549975517 22.10343896054953 0 0 0
829 93 1 0 1.7719964194363003 14.158503604106171 23.565131899790767 0 0 0
834 93 2 0 2.96200713186985 14.471358969489371 22.30104172929703 0 0 0
841 94 2 0 5.1941965523310305 14.219002541835533 22.103624453368408 0 0 0
843 94 2 0 7.438216367056263 14.472034724037485 22.301480177352488 0 0 0
838 94 1 0 6.248111343126284 14.158815249280055 23.565347212094714 0 0 0
847 95 1 0 10.724370021876272 14.158790936246197 23.5654687832399 0 0 0
850 95 2 0 9.670380822071039 14.218626689321455 22.103865550452465 0 0 0
852 95 2 0 11.914397958517812 14.472354132471724 22.301667355597818 0 0 0
856 96 1 0 -9.417567390544964 18.033169239439747 23.565323251505834 0 0 0
859 96 2 0 11.909586478641353 18.093099971886357 22.103653551247366 -1 0 0
861 96 2 0 -8.227507479895145 18.34638135017126 22.301418025541487 0 0 0
868 97 2 0 -5.995335398517189 18.092835846965453 22.10370985083296 0 0 0
865 97 1 0 -4.941327090929702 18.033022797449583 23.56532179911423 0 0 0
870 97 2 0 -3.7513311561154863 18.34625819107622 22.30135814599875 0 0 0
877 98 2 0 -1.5191153674674231 18.092796888228786 22.10350905199227 0 0 0
874 98 1 0 -0.4651140129196564 18.032904449694666 23.565154116737467 0 0 0
879 98 2 0 0.7249184771426245 18.345847227075524 22.30111249863156 0 0 0
883 99 1 0 4.0111256385310305 18.032979064573645 23.565070164881135 0 0 0
886 99 2 0 2.9572000270770396 18.093022204291323 22.103339749153616 0 0 0
888 99 2 0 5.201187416281204 18.345755156866264 22.300986445471988 0 0 0
895 100 2 0 7.433360650079326 18.09335695499786 22.103571701184762 0 0 0
892 100 1 0 8.487308715556429 18.033234438518427 23.56527617890034 0 0 0
897 100 2 0 9.677380303327611 18.346395846817106 22.301347105988054 0 0 0
908 101 2 0 2.9864265426978296 1.6168827235828802 27.52186277545664 0 0 0
684 76 2 0 3.5210163330980464 1.6089141694734939 25.031980841324582 0 0 0
903 101 1 0 3.2460183387103183 0.39476469669058517 26.279883818962233 0 0 0
693 77 2 0 7.99710895417417 1.608865772635787 25.03200995145295 0 0 0
912 102 1 0 7.7221247995292375 0.394694159763101 26.27988618897536 0 0 0
917 102 2 0 7.46263209762071 1.616810312673093 27.521891920733538 0 0 0
926 103 2 0 11.938756864994268 1.616734308253792 27.521827152898013 0 0 0
921 103 1 0 12.19829225830746 0.3946737817702185 26.279761804466794 0 0 0
702 78 2 0 12.473366755249495 1.6087918221066095 25.031861295881036 0 0 0
930 104 1 0 16.674587169822896 0.39474729490430716 26.279682634257462 0 0 0
935 104 2 0 16.41501696183689 1.616807171016826 27.521741207855342 0 0 0
711 79 2 0 16.94960468108419 1.6088849655792146 25.03181071208145 0 0 0
720 80 2 0 21.425923532436673 1.6089729558819572 25.03189437724808 0 0 0
939 105 1 0 21.15098504051889 0.39482609254112405 26.279789573288866 0 0 0
944 105 2 0 20.891346771355277 1.6169290977639057 27.521790449234913 0 0 0
680 76 2 0 0.4261461985875888 3.391566734539289 24.818976405997105 0 0 0
953 106 2 0 0.7495669870424477 5.491267208106987 27.5218014656362 0 0 0
729 81 2 0 1.2840988508621283 5.483399707219716 25.031897745208212 0 0 0
948 106 1 0 1.009102115720203 4.2691957886664165 26.279770192744124 0 0 0
689 77 2 0 4.902392568488404 3.3915063517448636 24.81906964611973 0 0 0
957 107 1 0 5.485293800897541 4.269147006933654 26.279855375143505 0 0 0
962 107 2 0 5.225792452393671 5.49124648959632 27.52186861480854 0 0 0
738 82 2 0 5.760288791430122 5.483350167779795 25.03199106855982 0 0 0
698 78 2 0 9.3784927129857 3.391459995477084 24.819107874666408 0 0 0
747 83 2 0 10.236420940732016 5.483309306087617 25.032051221319392 0 0 0
966 108 1 0 9.961381556558447 4.269093721174524 26.27987486680709 0 0 0
971 108 2 0 9.70193675559645 5.491182591302543 27.521920486625056 0 0 0
707 79 2 0 13.854568546213788 3.391415365511123 24.819009118393424 0 0 0
980 109 2 0 14.178058175326182 5.491121002293797 27.52182957364745 0 0 0
975 109 1 0 14.437553281584838 4.269082921316509 26.279734937516082 0 0 0
756 84 2 0 14.712672341035631 5.483191969198747 25.031829743983053 0 0 0
716 80 2 0 18.330878996358976 3.3914663365341267 24.818928200439707 0 0 0
765 85 2 0 19.188887387833056 5.483287394104482 25.031799415203807 0 0 0
984 110 1 0 18.913858774437887 4.269129679662503 26.279683395114503 0 0 0
989 110 2 0 18.654336798808718 5.491167640791503 27.521760679703192 0 0 0
725 81 2 0 -1.8109951989016697 7.26590077124095 24.81896171659676 0 0 0
993 111 1 0 -1.2279378133291494 8.143465042147694 26.279771934048625 0 0 0
774 86 2 0 -0.9527126015249874 9.357634186219089 25.031898490013063 0 0 0
998 111 2 0 -1.487433391402251 9.365500864468503 27.521854620305312 0 0 0
734 82 2 0 2.6654919034985256 7.265968598722194 24.819011027612916 0 0 0
1007 112 2 0 2.9889151907207285 9.365625766346001 27.521860723091308 0 0 0
1002 112 1 0 3.248442196554725 8.143553381870802 26.279818908773095 0 0 0
783 87 2 0 3.523522847184071 9.357762772077791 25.031967331804708 0 0 0
743 83 2 0 7.14169872412049 7.265945622606356 24.81909972086524 0 0 0
1011 113 1 0 7.724594040534984 8.14352506860925 26.279906450690383 0 0 0
792 88 2 0 7.999672973214259 9.357770090146932 25.032100948094552 0 0 0
1016 113 2 0 7.465091713532 9.365623179724683 27.52193258094551 0 0 0
752 84 2 0 11.617834582510659 7.265906134935821 24.819134726901524 0 0 0
1020 114 1 0 12.20072974253916 8.143517305187366 26.279896249710852 0 0 0
1025 114 2 0 11.941277765070872 9.365595805132829 27.521958851503086 0 0 0
801 89 2 0 12.475859222156533 9.357694472706251 25.03204741158433 0 0 0
761 85 2 0 16.0938655639021 7.265849194277978 24.81898928847272 0 0 0
1029 115 1 0 16.676877173961326 8.143433756787834 26.279781732805652 0 0 0
1034 115 2 0 16.41739983557878 9.365463403228855 27.521879927496983 0 0 0
810 90 2 0 16.95207282174044 9.357593990800993 25.031912392191103 0 0 0
770 86 2 0 -4.047657207674323 11.140172080918543 24.819074919225102 0 0 0
1038 116 1 0 -3.4648069959739938 12.017818970979436 26.27985703696968 0 0 0
779 87 2 0 0.4286824610556284 11.140194280199157 24.819032856950443 0 0 0
1047 117 1 0 1.011516613873981 12.017891155370014 26.279776458861292 0 0 0
788 88 2 0 4.9050552208603895 11.140307066491944 24.819058544379786 0 0 0
1056 118 1 0 5.487804068100821 12.017969623557232 26.279831571115707 0 0 0
797 89 2 0 9.38129062652185 11.140292615227557 24.819175694965473 0 0 0
1065 119 1 0 9.963983761168077 12.017973351810145 26.279931743826623 0 0 0
806 90 2 0 13.857468717505371 11.140178660728454 24.81913955518108 0 0 0
1074 120 1 0 14.440168715988133 12.017898294516197 26.27989013955346 0 0 0
815 91 2 0 -6.284276136150089 15.014527736599137 24.81916118050544 0 0 0
1083 121 1 0 -5.701596096454763 15.892289998761845 26.27990744358786 0 0 0
819 91 2 0 -3.1896067431933046 13.231979517730872 25.031993792901567 0 0 0
1043 116 2 0 -3.7243375559780234 13.23987654457673 27.521917171468232 0 0 0
824 92 2 0 -1.8080980244951184 15.01447754870101 24.819117578009028 0 0 0
1092 122 1 0 -1.225396212587538 15.892272773474499 26.279817419174194 0 0 0
1052 117 2 0 0.75194597440018 13.239929753195092 27.521849149908334 0 0 0
828 92 2 0 1.2866791437298886 13.232026983165701 25.031891729674058 0 0 0
833 93 2 0 2.6680529275193816 15.014585227892374 24.819016385306895 0 0 0
1061 118 2 0 5.228247460112219 13.240056428558512 27.52185993081754 0 0 0
1101 123 1 0 3.2508647654692293 15.892331186562268 26.279726290813507 0 0 0
837 93 2 0 5.762837755022409 13.232214034004611 25.03204308078476 0 0 0
842 94 2 0 7.144479331067004 15.014678094488477 24.81910403957039 0 0 0
1110 124 1 0 7.727175907823282 15.892422622772997 26.279820443562578 0 0 0
846 94 2 0 10.239028696083981 13.232201645246466 25.032122215461058 0 0 0
1070 119 2 0 9.704470000524296 13.240082040191872 27.52194878158791 0 0 0
1079 120 2 0 14.180617888613474 13.23995287528078 27.521946662711805 0 0 0
851 95 2 0 11.62084378908133 15.014567510525149 24.819172694256032 0 0 0
1119 125 1 0 12.203409121046521 15.892384562926186 26.2798915533944 0 0 0
855 95 2 0 14.71523567464559 13.232073774739867 25.032028539595586 0 0 0
860 96 2 0 -8.52129225409076 18.889076661325714 24.81912698406738 0 0 0
1088 121 2 0 -5.96118400422658 17.11435752266625 27.521936280442873 0 0 0
864 96 2 0 -5.42658291974659 17.106458042463796 25.032035436411874 0 0 0
869 97 2 0 -4.045119397971495 18.888981153545572 24.81914492222063 0 0 0
873 97 2 0 -0.9503594310040742 17.10639937469221 25.03192164138146 0 0 0
1097 122 2 0 -1.484956203817114 17.114337576458368 27.521865497855735 0 0 0
878 98 2 0 0.43095808355493564 18.888954096810796 24.819055459904142 0 0 0
1106 123 2 0 2.991302072942167 17.114393147920502 27.521780366924382 0 0 0
882 98 2 0 3.5259025970356905 17.10648409354258 25.031864219323808 0 0 0
887 99 2 0 4.907206459755352 18.889057847082345 24.818961291198896 0 0 0
891 99 2 0 8.002134351908596 17.106653684410936 25.032024615244424 0 0 0
1115 124 2 0 7.467636138809985 17.114543731101897 27.521819982305587 0 0 0
896 100 2 0 9.383616141649336 18.889144031088755 24.819065516865095 0 0 0
1124 125 2 0 11.943767425457 17.114438806753906 27.521921151090922 0 0 0
900 100 2 0 12.478287402404778 17.106607196212973 25.03205370373884 0 0 0
904 101 2 0 -0.897820845382288 2.645641794316761 30.446811457238297 0 0 0
902 101 1 0 2.5296883029330965 2.5650290119865735 28.984228553194882 0 0 0
906 101 2 0 1.3398193586979146 2.9575699973982625 30.22346131843814 0 0 0
913 102 2 0 3.578416145836924 2.645639357832214 30.446907806150236 0 0 0
915 102 2 0 5.816080982640605 2.957478751650677 30.223533640734175 0 0 0
911 102 1 0 7.005933883485119 2.5649463903903382 28.984309505785752 0 0 0
922 103 2 0 8.054666885114527 2.6455267466612367 30.446957896058564 0 0 0
920 103 1 0 11.48211420409545 2.5648718875745025 28.98431732219806 0 0 0
924 103 2 0 10.292319934024846 2.957433698074556 30.22353843596177 0 0 0
931 104 2 0 12.530885733134308 2.6454476630268924 30.44688922894678 0 0 0
929 104 1 0 15.958333798947923 2.5649507811412864 28.984226995654318 0 0 0
940 105 2 0 17.007101255171715 2.645551787437336 30.446788949754172 0 0 0
933 104 2 0 14.7685145027063 2.957447589809125 30.223442173441285 0 0 0
942 105 2 0 19.244703448464186 2.9575741937258377 30.22341907638983 0 0 0
938 105 1 0 20.434539437389876 2.565054079913364 28.984196922247094 0 0 0
949 106 2 0 -3.134677955107697 6.519923030763438 30.446813414684343 0 0 0
947 106 1 0 0.2927806218102858 6.439355937039389 28.984186899242495 0 0 0
951 106 2 0 -0.8970677290650364 6.8318956112818405 30.2234360339842 0 0 0
907 101 2 0 1.5950096823901037 3.3972782890216466 27.743514524285033 0 0 0
958 107 2 0 1.3415241073349098 6.519961674990421 30.446859420977063 0 0 0
956 107 1 0 4.769048615919189 6.439350307843282 28.984253663394554 0 0 0
967 108 2 0 5.817768864440351 6.519926755464301 30.446948314209166 0 0 0
960 107 2 0 3.579173582243427 6.831861668353079 30.22349332539156 0 0 0
916 102 2 0 6.07121678886384 3.397242101440567 27.743611530996773 0 0 0
969 108 2 0 8.055419630603794 6.831860400090625 30.223571938288153 0 0 0
925 103 2 0 10.547315517149457 3.397163290322874 27.743637486364015 0 0 0
965 108 1 0 9.245271453251252 6.439322238429027 28.984363460023992 0 0 0
976 109 2 0 10.294003221181061 6.51990726649869 30.44699561449849 0 0 0
974 109 1 0 13.721455472024834 6.439267852500455 28.984330310318498 0 0 0
978 109 2 0 12.531663000816717 6.831802749583679 30.223562407536804 0 0 0
934 104 2 0 15.02352952408944 3.3971508909303476 27.743491789472735 0 0 0
985 110 2 0 14.7702328857698 6.5198600193234615 30.446900955614417 0 0 0
987 110 2 0 17.007852823093927 6.83183666904226 30.223466942933072 0 0 0
943 105 2 0 19.49978943318333 3.3971959498139466 27.743436128323744 0 0 0
983 110 1 0 18.19765004814744 6.439296886392807 28.98421484922669 0 0 0
952 106 2 0 -0.6420136364804312 7.271517398157529 27.743514895582386 0 0 0
961 107 2 0 3.834343779920974 7.2716345698506935 27.743578663431904 0 0 0
970 108 2 0 8.310518964190322 7.271626855832949 27.74368773580835 0 0 0
979 109 2 0 12.786659835145315 7.2715812825974675 27.7436647267631 0 0 0
988 110 2 0 17.262828954971784 7.271488625389748 27.743533672849374 0 0 0
994 111 2 0 -5.371541567305069 10.394204938237271 30.44693781683324 0 0 0
996 111 2 0 -3.1339308109603343 10.706185791134752 30.223541759497287 0 0 0
997 111 2 0 -2.8789184863648583 11.145875032503865 27.743629399527507 0 0 0
992 111 1 0 -1.9441251430162498 10.31362318039258 28.98429945965085 0 0 0
1003 112 2 0 -0.8953575419301132 10.394224911910406 30.446915170174364 0 0 0
1001 112 1 0 2.532126069398129 10.313725126501174 28.98427570183172 0 0 0
1005 112 2 0 1.3422679194828715 10.706218988974467 30.223499797742186 0 0 0
1006 112 2 0 1.5973750058545766 11.145938128145692 27.743548431900464 0 0 0
1012 113 2 0 3.5808639425445508 10.394326947549317 30.446907546305006 0 0 0
1014 113 2 0 5.818497039571998 10.706288749932435 30.22354555414428 0 0 0
1010 113 1 0 7.008371291270938 10.313771515449043 28.98435804255803 0 0 0
1021 114 2 0 8.05709258615372 10.394370511390445 30.446981643665353 0 0 0
1015 113 2 0 6.073641583683249 11.146043960581633 27.74363294386839 0 0 0
1019 114 1 0 11.48460321141119 10.313741804018427 28.98442502285384 0 0 0
1023 114 2 0 10.294746543717492 10.706288851909482 30.223598441852857 0 0 0
1024 114 2 0 10.549849027554401 11.146059901325742 27.743732127331754 0 0 0
1030 115 2 0 12.533336901455913 10.39432443556123 30.44702542868538 0 0 0
1028 115 1 0 15.96079150459094 10.31362829503212 28.984352172381755 0 0 0
1032 115 2 0 14.771002251705784 10.706218319453471 30.223581879267243 0 0 0
1033 115 2 0 15.026049470893032 11.14596071184034 27.74366626446728 0 0 0
1039 116 2 0 -7.608401193781994 14.268682614913082 30.44700721022371 0 0 0
1041 116 2 0 -5.370760913065802 14.5806160725688 30.22361554177249 0 0 0
1042 116 2 0 -5.1157082234023195 15.020377083637316 27.74369087459246 0 0 0
1037 116 1 0 -4.180975939740934 14.188036898584299 28.984384672771917 0 0 0
1048 117 2 0 -3.132205687281707 14.268596987220956 30.446967886549487 0 0 0
1051 117 2 0 -0.6395188884757845 15.020331894412859 27.74359008903479 0 0 0
1046 117 1 0 0.29523234121804337 14.18805486242487 28.984313854956113 0 0 0
1050 117 2 0 -0.8945769066806106 14.580589717080118 30.22353504075774 0 0 0
1057 118 2 0 1.343998662810314 14.268630126652036 30.446890563397005 0 0 0
1060 118 2 0 3.836744616918386 15.020401557911002 27.743514136125967 0 0 0
1055 118 1 0 4.771482124375016 14.18820342306995 28.98430352882518 0 0 0
1066 119 2 0 5.820215208024294 14.268780092094053 30.446884547993683 0 0 0
1059 118 2 0 3.581616497636535 14.580677018153011 30.223486170060596 0 0 0
1069 119 2 0 8.31301706219794 15.02051662479564 27.743636367669815 0 0 0
1068 119 2 0 8.057848079344213 14.580743984388143 30.223542715690712 0 0 0
1064 119 1 0 9.24774143302529 14.188250031760369 28.98439844166625 0 0 0
1075 120 2 0 10.29645337655469 14.268822100090171 30.446992337966343 0 0 0
1078 120 2 0 12.789298601186193 15.020487647599783 27.74367834273953 0 0 0
1073 120 1 0 13.723967550650922 14.188125079269865 28.98441371945365 0 0 0
1077 120 2 0 12.534128970148032 14.580679221947822 30.22359553743567 0 0 0
1084 121 2 0 -9.845285780361612 18.143169506728118 30.446988043360122 0 0 0
1087 121 2 0 -7.352458017939089 18.894925689068174 27.743671251367807 0 0 0
1082 121 1 0 -6.417795368338464 18.062551779454164 28.98437963063001 0 0 0
1093 122 2 0 -5.369046182246385 18.14312064909296 30.446992680298052 0 0 0
1086 121 2 0 -7.60762212228565 18.455075106873423 30.223605718005935 0 0 0
1096 122 2 0 -2.876377206545631 18.894801005379055 27.7436609958732 0 0 0
1095 122 2 0 -3.13140053461217 18.455015477571965 30.223580584147797 0 0 0
1091 122 1 0 -1.9416106021206458 18.062479955861523 28.984345703439445 0 0 0
1102 123 2 0 -0.892834303019564 18.143027687451493 30.446917520855393 0 0 0
1105 123 2 0 1.599824809332574 18.894765722046237 27.74353123863537 0 0 0
1100 123 1 0 2.5346094297210104 18.062532888441652 28.984266194427413 0 0 0
1104 123 2 0 1.3447923965853865 18.455030376395268 30.223480476920592 0 0 0
1111 124 2 0 3.5833760249323827 18.143089809290455 30.44682425849156 0 0 0
1113 124 2 0 5.820986870225999 18.455137512970538 30.223443828114767 0 0 0
1114 124 2 0 6.076112189807972 18.89486005061578 27.743474907938854 0 0 0
1109 124 1 0 7.010868782539347 18.06270026541983 28.98427509723433 0 0 0
1120 125 2 0 8.059590341963249 18.143240763896593 30.446854757901633 0 0 0
1123 125 2 0 10.552532312761377 18.8950036445326 27.743586380167024 0 0 0
1118 125 1 0 11.48710665692376 18.06263519750378 28.98436006898961 0 0 0
1122 125 2 0 10.297235521442962 18.455131494861252 30.223540047381647 0 0 0
901 101 1 0 0.29200014286955206 3.0316597287675178 31.687185234451405 0 0 0
909 101 2 0 3.8455970370772823 2.1916027613571303 32.932002995247736 0 0 0
910 102 1 0 4.768263034352655 3.0316219047983624 31.687271425736725 0 0 0
918 102 2 0 8.321836214082355 2.191555838091386 32.93200425662719 0 0 0
919 103 1 0 9.244535818246074 3.0315639462689323 31.687217295527184 0 0 0
927 103 2 0 12.798062993496886 2.191510074988402 32.9319172293894 0 0 0
928 104 1 0 13.720759966312515 3.031545573719826 31.687128959286824 0 0 0
936 104 2 0 17.27425000671376 2.191556759243622 32.93186328715584 0 0 0
937 105 1 0 18.196908866613896 3.031626505064198 31.6870793930769 0 0 0
945 105 2 0 -0.6306491100549716 2.1916078453646533 32.93191858377092 1 0 0
946 106 1 0 -1.944878597260301 6.9060246589662935 31.687161429560895 0 0 0
905 101 2 0 0.7593420879864496 3.9734289843085224 33.149663611187044 0 0 0
954 106 2 0 1.608634271802064 6.066016076236993 32.931946360613644 0 0 0
955 107 1 0 2.531336464463556 6.906008709113882 31.687256260711095 0 0 0
914 102 2 0 5.23562361491112 3.973380237799319 33.14973777718011 0 0 0
963 107 2 0 6.08487937043042 6.0659902587977275 32.93201513058807 0 0 0
964 108 1 0 7.007589560238445 6.905978975662793 31.68727688387505 0 0 0
923 103 2 0 9.711863731332997 3.9733467177873636 33.149759284980135 0 0 0
972 108 2 0 10.561175306946687 6.06593538503258 32.9320261032057 0 0 0
973 109 1 0 11.48388970130108 6.905939979951697 31.687241327081665 0 0 0
932 104 2 0 14.188048678188789 3.9733648598807556 33.149684407843985 0 0 0
981 109 2 0 15.037369689703672 6.0659302132653465 32.93191897834383 0 0 0
982 110 1 0 15.960083147474606 6.9059603850950335 31.68715252832576 0 0 0
941 105 2 0 18.66422545996666 3.9734267222129613 33.14963182601474 0 0 0
990 110 2 0 -2.867576737929684 6.066013749301159 32.93188859568617 1 0 0
950 106 2 0 -1.477571130890513 7.847800853972085 33.149659465014885 0 0 0
999 111 2 0 -0.6282571687494898 9.940379679104412 32.9319688560055 0 0 0
959 107 2 0 2.998673600701908 7.847766369069541 33.14969995090061 0 0 0
1008 112 2 0 3.8479895159253514 9.940354827898707 32.93200148593385 0 0 0
968 108 2 0 7.4749255804282955 7.847745547415402 33.149770284867195 0 0 0
1017 113 2 0 8.324243039554728 9.940354459316122 32.932037884431686 0 0 0
977 109 2 0 11.951192709165678 7.84772944802 33.149799581906834 0 0 0
1026 114 2 0 12.800493465400955 9.940336937547633 32.93201961057015 0 0 0
986 110 2 0 16.42736269905782 7.847765787008056 33.14971360941038 0 0 0
1035 115 2 0 -5.104463611459234 9.940354579850217 32.93199275880919 1 0 0
991 111 1 0 -4.181729207411249 10.780328273843715 31.68722306210408 0 0 0
995 111 2 0 -3.7144375928784465 11.722126724743182 33.149763593829086 0 0 0
1000 112 1 0 0.29445778627394753 10.780342427909455 31.68721454208989 0 0 0
1004 112 2 0 0.7617770282170022 11.722127437290894 33.149720344487164 0 0 0
1009 113 1 0 4.770669980985411 10.780358924386356 31.687234971739542 0 0 0
1013 113 2 0 5.238019534445114 11.722121908283784 33.149750607561096 0 0 0
1018 114 1 0 9.246942164021153 10.780384644559433 31.68726954336762 0 0 0
1022 114 2 0 9.714265835276617 11.722153176251824 33.1498188729889 0 0 0
1027 115 1 0 13.723229871040388 10.780362810745041 31.68726218375432 0 0 0
1031 115 2 0 14.190530242080122 11.722147005763615 33.14982874116965 0 0 0
1036 116 1 0 -6.418555634520605 14.654749556937064 31.687276794192833 0 0 0
1040 116 2 0 -5.951261363368253 15.596555871803458 33.14982812195153 0 0 0
1044 116 2 0 -2.865069033062718 13.814705636854049 32.9320050993088 0 0 0
1045 117 1 0 -1.942354254024169 14.654704784536262 31.687228328172623 0 0 0
1049 117 2 0 -1.4750609384813294 15.596508722671803 33.14977286908531 0 0 0
1053 117 2 0 1.6111275031341623 13.814727224728047 32.93195834038588 0 0 0
1054 118 1 0 2.5338326757449803 14.654726847138411 31.687172788834296 0 0 0
1058 118 2 0 3.0011550027111262 15.596516604331223 33.149713598797504 0 0 0
1062 118 2 0 6.087370998750189 13.814728646361154 32.93199061091044 0 0 0
1063 119 1 0 7.010044993952528 14.654777100359013 31.68719897384723 0 0 0
1067 119 2 0 7.477367680817226 15.596555553818002 33.14975915280003 0 0 0
1071 119 2 0 10.56362733691072 13.814755523928147 32.93202556747349 0 0 0
1072 120 1 0 11.486339605102497 14.654800359868165 31.687252761636053 0 0 0
1076 120 2 0 11.953640960007489 15.596590315135888 33.149822384873126 0 0 0
1080 120 2 0 -7.341267100977991 13.814744414184835 32.93206584675415 1 0 0
1081 121 1 0 -8.65542825935488 18.529185412269964 31.687265521023008 0 0 0
1085 121 2 0 -8.188102620857787 19.47097694087932 33.1498078184952 0 0 0
1089 121 2 0 -5.101877116117194 17.689124379756322 32.932043905121034 0 0 0
1090 122 1 0 -4.179182171589951 18.52913511445224 31.687253387661087 0 0 0
1094 122 2 0 -3.7118562864965714 19.470925693292973 33.14980783460284 0 0 0
1098 122 2 0 -0.6256697547308792 17.689085742568903 32.931956665362016 0 0 0
1099 123 1 0 0.29703530078198687 18.52910871307724 31.687170404275093 0 0 0
1103 123 2 0 0.7643259587467541 19.4709247383135 33.14972496748869 0 0 0
1107 123 2 0 3.8505447655465463 17.68908996077161 32.93190274872863 0 0 0
1108 124 1 0 4.773209859994079 18.529162928748413 31.68711350587065 0 0 0
1112 124 2 0 5.240484754562207 19.4709862909226 33.14967165033008 0 0 0
1116 124 2 0 8.32671396180674 17.68915139912695 32.93194742815499 0 0 0
1117 125 1 0 9.249419112441556 18.52919861197537 31.687166148674642 0 0 0
1121 125 2 0 9.716731224970017 19.470998871868844 33.149731111570176 0 0 0
1125 125 2 0 -9.578132584396384 17.68917812716472 32.932044151871544 1 0 0

Velocities

8 0 0 0
3 0 0 0
17 0 0 0
12 0 0 0
26 0 0 0
21 0 0 0
30 0 0 0
35 0 0 0
39 0 0 0
44 0 0 0
53 0 0 0
7 0 0 0
48 0 0 0
62 0 0 0
57 0 0 0
16 0 0 0
71 0 0 0
25 0 0 0
66 0 0 0
80 0 0 0
75 0 0 0
34 0 0 0
43 0 0 0
84 0 0 0
89 0 0 0
93 0 0 0
52 0 0 0
98 0 0 0
107 0 0 0
61 0 0 0
102 0 0 0
70 0 0 0
111 0 0 0
116 0 0 0
120 0 0 0
79 0 0 0
125 0 0 0
129 0 0 0
134 0 0 0
88 0 0 0
138 0 0 0
97 0 0 0
106 0 0 0
147 0 0 0
156 0 0 0
115 0 0 0
124 0 0 0
165 0 0 0
174 0 0 0
133 0 0 0
183 0 0 0
143 0 0 0
142 0 0 0
192 0 0 0
151 0 0 0
152 0 0 0
161 0 0 0
160 0 0 0
201 0 0 0
169 0 0 0
210 0 0 0
170 0 0 0
179 0 0 0
219 0 0 0
178 0 0 0
187 0 0 0
188 0 0 0
196 0 0 0
197 0 0 0
205 0 0 0
206 0 0 0
214 0 0 0
215 0 0 0
223 0 0 0
224 0 0 0
4 0 0 0
2 0 0 0
6 0 0 0
15 0 0 0
13 0 0 0
11 0 0 0
22 0 0 0
20 0 0 0
24 0 0 0
31 0 0 0
29 0 0 0
33 0 0 0
40 0 0 0
42 0 0 0
38 0 0 0
49 0 0 0
47 0 0 0
51 0 0 0
58 0 0 0
56 0 0 0
60 0 0 0
67 0 0 0
69 0 0 0
65 0 0 0
76 0 0 0
74 0 0 0
78 0 0 0
85 0 0 0
87 0 0 0
83 0 0 0
94 0 0 0
96 0 0 0
92 0 0 0
103 0 0 0
101 0 0 0
105 0 0 0
112 0 0 0
114 0 0 0
110 0 0 0
121 0 0 0
119 0 0 0
123 0 0 0
130 0 0 0
128 0 0 0
132 0 0 0
141 0 0 0
139 0 0 0
137 0 0 0
148 0 0 0
150 0 0 0
146 0 0 0
157 0 0 0
159 0 0 0
155 0 0 0
166 0 0 0
168 0 0 0
164 0 0 0
175 0 0 0
177 0 0 0
173 0 0 0
184 0 0 0
182 0 0 0
186 0 0 0
193 0 0 0
195 0 0 0
191 0 0 0
202 0 0 0
200 0 0 0
204 0 0 0
211 0 0 0
213 0 0 0
209 0 0 0
220 0 0 0
218 0 0 0
222 0 0 0
1 0 0 0
9 0 0 0
10 0 0 0
18 0 0 0
19 0 0 0
27 0 0 0
28 0 0 0
36 0 0 0
37 0 0 0
45 0 0 0
46 0 0 0
5 0 0 0
54 0 0 0
55 0 0 0
14 0 0 0
63 0 0 0
64 0 0 0
23 0 0 0
72 0 0 0
73 0 0 0
32 0 0 0
81 0 0 0
82 0 0 0
41 0 0 0
90 0 0 0
50 0 0 0
99 0 0 0
59 0 0 0
108 0 0 0
68 0 0 0
117 0 0 0
77 0 0 0
126 0 0 0
86 0 0 0
135 0 0 0
91 0 0 0
95 0 0 0
100 0 0 0
104 0 0 0
109 0 0 0
113 0 0 0
118 0 0 0
122 0 0 0
127 0 0 0
131 0 0 0
136 0 0 0
140 0 0 0
144 0 0 0
145 0 0 0
149 0 0 0
153 0 0 0
154 0 0 0
158 0 0 0
162 0 0 0
163 0 0 0
167 0 0 0
171 0 0 0
172 0 0 0
176 0 0 0
180 0 0 0
181 0 0 0
185 0 0 0
189 0 0 0
190 0 0 0
194 0 0 0
198 0 0 0
199 0 0 0
203 0 0 0
207 0 0 0
208 0 0 0
212 0 0 0
216 0 0 0
217 0 0 0
221 0 0 0
225 0 0 0
233 0 0 0
228 0 0 0
237 0 0 0
242 0 0 0
251 0 0 0
246 0 0 0
255 0 0 0
260 0 0 0
264 0 0 0
269 0 0 0
278 0 0 0
273 0 0 0
232 0 0 0
282 0 0 0
287 0 0 0
241 0 0 0
291 0 0 0
296 0 0 0
250 0 0 0
305 0 0 0
300 0 0 0
259 0 0 0
309 0 0 0
268 0 0 0
314 0 0 0
318 0 0 0
277 0 0 0
323 0 0 0
332 0 0 0
327 0 0 0
286 0 0 0
336 0 0 0
295 0 0 0
341 0 0 0
345 0 0 0
304 0 0 0
350 0 0 0
354 0 0 0
359 0 0 0
313 0 0 0
363 0 0 0
322 0 0 0
372 0 0 0
331 0 0 0
381 0 0 0
340 0 0 0
390 0 0 0
349 0 0 0
399 0 0 0
358 0 0 0
408 0 0 0
368 0 0 0
367 0 0 0
417 0 0 0
376 0 0 0
377 0 0 0
386 0 0 0
426 0 0 0
385 0 0 0
435 0 0 0
394 0 0 0
395 0 0 0
404 0 0 0
444 0 0 0
403 0 0 0
412 0 0 0
413 0 0 0
421 0 0 0
422 0 0 0
430 0 0 0
431 0 0 0
439 0 0 0
440 0 0 0
448 0 0 0
449 0 0 0
229 0 0 0
226 0 0 0
227 0 0 0
231 0 0 0
240 0 0 0
238 0 0 0
235 0 0 0
236 0 0 0
247 0 0 0
245 0 0 0
249 0 0 0
244 0 0 0
256 0 0 0
253 0 0 0
254 0 0 0
258 0 0 0
265 0 0 0
267 0 0 0
262 0 0 0
263 0 0 0
274 0 0 0
272 0 0 0
276 0 0 0
271 0 0 0
283 0 0 0
280 0 0 0
281 0 0 0
285 0 0 0
292 0 0 0
294 0 0 0
289 0 0 0
290 0 0 0
301 0 0 0
298 0 0 0
299 0 0 0
303 0 0 0
310 0 0 0
312 0 0 0
307 0 0 0
308 0 0 0
319 0 0 0
321 0 0 0
316 0 0 0
317 0 0 0
328 0 0 0
325 0 0 0
326 0 0 0
330 0 0 0
337 0 0 0
339 0 0 0
334 0 0 0
335 0 0 0
346 0 0 0
344 0 0 0
348 0 0 0
343 0 0 0
355 0 0 0
352 0 0 0
353 0 0 0
357 0 0 0
366 0 0 0
364 0 0 0
361 0 0 0
362 0 0 0
373 0 0 0
371 0 0 0
375 0 0 0
370 0 0 0
382 0 0 0
379 0 0 0
380 0 0 0
384 0 0 0
391 0 0 0
393 0 0 0
388 0 0 0
389 0 0 0
400 0 0 0
397 0 0 0
398 0 0 0
402 0 0 0
409 0 0 0
406 0 0 0
407 0 0 0
411 0 0 0
418 0 0 0
420 0 0 0
415 0 0 0
416 0 0 0
427 0 0 0
424 0 0 0
425 0 0 0
429 0 0 0
436 0 0 0
438 0 0 0
433 0 0 0
434 0 0 0
445 0 0 0
443 0 0 0
447 0 0 0
442 0 0 0
234 0 0 0
453 0 0 0
243 0 0 0
462 0 0 0
252 0 0 0
471 0 0 0
480 0 0 0
261 0 0 0
270 0 0 0
489 0 0 0
230 0 0 0
279 0 0 0
498 0 0 0
239 0 0 0
507 0 0 0
288 0 0 0
297 0 0 0
248 0 0 0
516 0 0 0
257 0 0 0
306 0 0 0
525 0 0 0
315 0 0 0
266 0 0 0
534 0 0 0
275 0 0 0
543 0 0 0
324 0 0 0
284 0 0 0
552 0 0 0
333 0 0 0
293 0 0 0
561 0 0 0
342 0 0 0
302 0 0 0
570 0 0 0
351 0 0 0
311 0 0 0
579 0 0 0
360 0 0 0
320 0 0 0
588 0 0 0
329 0 0 0
597 0 0 0
338 0 0 0
606 0 0 0
347 0 0 0
615 0 0 0
356 0 0 0
624 0 0 0
365 0 0 0
633 0 0 0
369 0 0 0
374 0 0 0
642 0 0 0
378 0 0 0
383 0 0 0
651 0 0 0
387 0 0 0
392 0 0 0
660 0 0 0
396 0 0 0
401 0 0 0
669 0 0 0
405 0 0 0
410 0 0 0
414 0 0 0
419 0 0 0
423 0 0 0
428 0 0 0
432 0 0 0
437 0 0 0
441 0 0 0
446 0 0 0
450 0 0 0
458 0 0 0
452 0 0 0
467 0 0 0
461 0 0 0
470 0 0 0
476 0 0 0
485 0 0 0
479 0 0 0
494 0 0 0
488 0 0 0
497 0 0 0
503 0 0 0
457 0 0 0
512 0 0 0
506 0 0 0
466 0 0 0
521 0 0 0
475 0 0 0
515 0 0 0
530 0 0 0
524 0 0 0
484 0 0 0
539 0 0 0
493 0 0 0
533 0 0 0
502 0 0 0
548 0 0 0
557 0 0 0
511 0 0 0
520 0 0 0
566 0 0 0
529 0 0 0
575 0 0 0
584 0 0 0
538 0 0 0
547 0 0 0
542 0 0 0
551 0 0 0
556 0 0 0
560 0 0 0
565 0 0 0
569 0 0 0
574 0 0 0
578 0 0 0
583 0 0 0
593 0 0 0
587 0 0 0
592 0 0 0
596 0 0 0
601 0 0 0
602 0 0 0
611 0 0 0
605 0 0 0
610 0 0 0
619 0 0 0
620 0 0 0
614 0 0 0
629 0 0 0
623 0 0 0
628 0 0 0
638 0 0 0
632 0 0 0
637 0 0 0
646 0 0 0
647 0 0 0
641 0 0 0
656 0 0 0
655 0 0 0
650 0 0 0
665 0 0 0
659 0 0 0
664 0 0 0
668 0 0 0
673 0 0 0
674 0 0 0
454 0 0 0
451 0 0 0
456 0 0 0
465 0 0 0
463 0 0 0
460 0 0 0
472 0 0 0
474 0 0 0
469 0 0 0
481 0 0 0
478 0 0 0
483 0 0 0
490 0 0 0
492 0 0 0
487 0 0 0
499 0 0 0
501 0 0 0
496 0 0 0
508 0 0 0
505 0 0 0
510 0 0 0
517 0 0 0
519 0 0 0
514 0 0 0
526 0 0 0
523 0 0 0
528 0 0 0
535 0 0 0
537 0 0 0
532 0 0 0
544 0 0 0
546 0 0 0
541 0 0 0
553 0 0 0
550 0 0 0
555 0 0 0
562 0 0 0
564 0 0 0
559 0 0 0
571 0 0 0
573 0 0 0
568 0 0 0
580 0 0 0
577 0 0 0
582 0 0 0
591 0 0 0
589 0 0 0
586 0 0 0
598 0 0 0
600 0 0 0
595 0 0 0
607 0 0 0
604 0 0 0
609 0 0 0
616 0 0 0
618 0 0 0
613 0 0 0
625 0 0 0
622 0 0 0
627 0 0 0
634 0 0 0
631 0 0 0
636 0 0 0
643 0 0 0
645 0 0 0
640 0 0 0
652 0 0 0
649 0 0 0
654 0 0 0
661 0 0 0
663 0 0 0
658 0 0 0
670 0 0 0
672 0 0 0
667 0 0 0
459 0 0 0
678 0 0 0
468 0 0 0
687 0 0 0
477 0 0 0
696 0 0 0
705 0 0 0
486 0 0 0
495 0 0 0
714 0 0 0
455 0 0 0
504 0 0 0
723 0 0 0
464 0 0 0
732 0 0 0
513 0 0 0
473 0 0 0
522 0 0 0
741 0 0 0
482 0 0 0
531 0 0 0
750 0 0 0
491 0 0 0
540 0 0 0
759 0 0 0
500 0 0 0
768 0 0 0
549 0 0 0
509 0 0 0
777 0 0 0
558 0 0 0
518 0 0 0
786 0 0 0
567 0 0 0
527 0 0 0
795 0 0 0
576 0 0 0
536 0 0 0
804 0 0 0
585 0 0 0
545 0 0 0
813 0 0 0
554 0 0 0
822 0 0 0
563 0 0 0
831 0 0 0
572 0 0 0
840 0 0 0
581 0 0 0
849 0 0 0
590 0 0 0
858 0 0 0
594 0 0 0
599 0 0 0
867 0 0 0
603 0 0 0
608 0 0 0
876 0 0 0
612 0 0 0
617 0 0 0
885 0 0 0
621 0 0 0
626 0 0 0
894 0 0 0
630 0 0 0
635 0 0 0
639 0 0 0
644 0 0 0
648 0 0 0
653 0 0 0
657 0 0 0
662 0 0 0
666 0 0 0
671 0 0 0
675 0 0 0
683 0 0 0
677 0 0 0
692 0 0 0
686 0 0 0
695 0 0 0
701 0 0 0
710 0 0 0
704 0 0 0
719 0 0 0
713 0 0 0
722 0 0 0
728 0 0 0
682 0 0 0
737 0 0 0
731 0 0 0
691 0 0 0
746 0 0 0
700 0 0 0
740 0 0 0
755 0 0 0
749 0 0 0
709 0 0 0
718 0 0 0
764 0 0 0
758 0 0 0
727 0 0 0
773 0 0 0
782 0 0 0
736 0 0 0
745 0 0 0
791 0 0 0
754 0 0 0
800 0 0 0
809 0 0 0
763 0 0 0
772 0 0 0
767 0 0 0
776 0 0 0
781 0 0 0
785 0 0 0
790 0 0 0
794 0 0 0
799 0 0 0
803 0 0 0
808 0 0 0
818 0 0 0
817 0 0 0
812 0 0 0
826 0 0 0
821 0 0 0
827 0 0 0
836 0 0 0
835 0 0 0
830 0 0 0
844 0 0 0
845 0 0 0
839 0 0 0
854 0 0 0
853 0 0 0
848 0 0 0
862 0 0 0
863 0 0 0
857 0 0 0
871 0 0 0
872 0 0 0
866 0 0 0
880 0 0 0
881 0 0 0
875 0 0 0
889 0 0 0
890 0 0 0
884 0 0 0
898 0 0 0
893 0 0 0
899 0 0 0
676 0 0 0
679 0 0 0
681 0 0 0
685 0 0 0
690 0 0 0
688 0 0 0
697 0 0 0
694 0 0 0
699 0 0 0
703 0 0 0
706 0 0 0
708 0 0 0
715 0 0 0
712 0 0 0
717 0 0 0
724 0 0 0
721 0 0 0
726 0 0 0
733 0 0 0
730 0 0 0
735 0 0 0
742 0 0 0
739 0 0 0
744 0 0 0
748 0 0 0
751 0 0 0
753 0 0 0
760 0 0 0
757 0 0 0
762 0 0 0
769 0 0 0
766 0 0 0
771 0 0 0
778 0 0 0
775 0 0 0
780 0 0 0
784 0 0 0
787 0 0 0
789 0 0 0
796 0 0 0
793 0 0 0
798 0 0 0
802 0 0 0
805 0 0 0
807 0 0 0
816 0 0 0
811 0 0 0
814 0 0 0
823 0 0 0
825 0 0 0
820 0 0 0
832 0 0 0
829 0 0 0
834 0 0 0
841 0 0 0
843 0 0 0
838 0 0 0
847 0 0 0
850 0 0 0
852 0 0 0
856 0 0 0
859 0 0 0
861 0 0 0
868 0 0 0
865 0 0 0
870 0 0 0
877 0 0 0
874 0 0 0
879 0 0 0
883 0 0 0
886 0 0 0
888 0 0 0
895 0 0 0
892 0 0 0
897 0 0 0
908 0 0 0
684 0 0 0
903 0 0 0
693 0 0 0
912 0 0 0
917 0 0 0
926 0 0 0
921 0 0 0
702 0 0 0
930 0 0 0
935 0 0 0
711 0 0 0
720 0 0 0
939 0 0 0
944 0 0 0
680 0 0 0
953 0 0 0
729 0 0 0
948 0 0 0
689 0 0 0
957 0 0 0
962 0 0 0
738 0 0 0
698 0 0 0
747 0 0 0
966 0 0 0
971 0 0 0
707 0 0 0
980 0 0 0
975 0 0 0
756 0 0 0
716 0 0 0
765 0 0 0
984 0 0 0
989 0 0 0
725 0 0 0
993 0 0 0
774 0 0 0
998 0 0 0
734 0 0 0
1007 0 0 0
1002 0 0 0
783 0 0 0
743 0 0 0
1011 0 0 0
792 0 0 0
1016 0 0 0
752 0 0 0
1020 0 0 0
1025 0 0 0
801 0 0 0
761 0 0 0
1029 0 0 0
1034 0 0 0
810 0 0 0
770 0 0 0
1038 0 0 0
779 0 0 0
1047 0 0 0
788 0 0 0
1056 0 0 0
797 0 0 0
1065 0 0 0
806 0 0 0
1074 0 0 0
815 0 0 0
1083 0 0 0
819 0 0 0
1043 0 0 0
824 0 0 0
1092 0 0 0
1052 0 0 0
828 0 0 0
833 0 0 0
1061 0 0 0
1101 0 0 0
837 0 0 0
842 0 0 0
1110 0 0 0
846 0 0 0
1070 0 0 0
1079 0 0 0
851 0 0 0
1119 0 0 0
855 0 0 0
860 0 0 0
1088 0 0 0
864 0 0 0
869 0 0 0
873 0 0 0
1097 0 0 0
878 0 0 0
1106 0 0 0
882 0 0 0
887 0 0 0
891 0 0 0
1115 0 0 0
896 0 0 0
1124 0 0 0
900 0 0 0
904 0 0 0
902 0 0 0
906 0 0 0
913 0 0 0
915 0 0 0
911 0 0 0
922 0 0 0
920 0 0 0
924 0 0 0
931 0 0 0
929 0 0 0
940 0 0 0
933 0 0 0
942 0 0 0
938 0 0 0
949 0 0 0
947 0 0 0
951 0 0 0
907 0 0 0
958 0 0 0
956 0 0 0
967 0 0 0
960 0 0 0
916 0 0 0
969 0 0 0
925 0 0 0
965 0 0 0
976 0 0 0
974 0 0 0
978 0 0 0
934 0 0 0
985 0 0 0
987 0 0 0
943 0 0 0
983 0 0 0
952 0 0 0
961 0 0 0
970 0 0 0
979 0 0 0
988 0 0 0
994 0 0 0
996 0 0 0
997 0 0 0
992 0 0 0
1003 0 0 0
1001 0 0 0
1005 0 0 0
1006 0 0 0
1012 0 0 0
1014 0 0 0
1010 0 0 0
1021 0 0 0
1015 0 0 0
1019 0 0 0
1023 0 0 0
1024 0 0 0
1030 0 0 0
1028 0 0 0
1032 0 0 0
1033 0 0 0
1039 0 0 0
1041 0 0 0
1042 0 0 0
1037 0 0 0
1048 0 0 0
1051 0 0 0
1046 0 0 0
1050 0 0 0
1057 0 0 0
1060 0 0 0
1055 0 0 0
1066 0 0 0
1059 0 0 0
1069 0 0 0
1068 0 0 0
1064 0 0 0
1075 0 0 0
1078 0 0 0
1073 0 0 0
1077 0 0 0
1084 0 0 0
1087 0 0 0
1082 0 0 0
1093 0 0 0
1086 0 0 0
1096 0 0 0
1095 0 0 0
1091 0 0 0
1102 0 0 0
1105 0 0 0
1100 0 0 0
1104 0 0 0
1111 0 0 0
1113 0 0 0
1114 0 0 0
1109 0 0 0
1120 0 0 0
1123 0 0 0
1118 0 0 0
1122 0 0 0
901 0 0 0
909 0 0 0
910 0 0 0
918 0 0 0
919 0 0 0
927 0 0 0
928 0 0 0
936 0 0 0
937 0 0 0
945 0 0 0
946 0 0 0
905 0 0 0
954 0 0 0
955 0 0 0
914 0 0 0
963 0 0 0
964 0 0 0
923 0 0 0
972 0 0 0
973 0 0 0
932 0 0 0
981 0 0 0
982 0 0 0
941 0 0 0
990 0 0 0
950 0 0 0
999 0 0 0
959 0 0 0
1008 0 0 0
968 0 0 0
1017 0 0 0
977 0 0 0
1026 0 0 0
986 0 0 0
1035 0 0 0
991 0 0 0
995 0 0 0
1000 0 0 0
1004 0 0 0
1009 0 0 0
1013 0 0 0
1018 0 0 0
1022 0 0 0
1027 0 0 0
1031 0 0 0
1036 0 0 0
1040 0 0 0
1044 0 0 0
1045 0 0 0
1049 0 0 0
1053 0 0 0
1054 0 0 0
1058 0 0 0
1062 0 0 0
1063 0 0 0
1067 0 0 0
1071 0 0 0
1072 0 0 0
1076 0 0 0
1080 0 0 0
1081 0 0 0
1085 0 0 0
1089 0 0 0
1090 0 0 0
1094 0 0 0
1098 0 0 0
1099 0 0 0
1103 0 0 0
1107 0 0 0
1108 0 0 0
1112 0 0 0
1116 0 0 0
1117 0 0 0
1121 0 0 0
1125 0 0 0
