LAMMPS data file via write_data, version 29 Aug 2024, timestep = 20000, units = metal

1125 atoms
2 atom types

-1.805511662014153 24.729467662014347 xlo xhi
-1.3440887627693296 21.426570762769437 ylo yhi
-2.3570136731863176 28.157965673186713 zlo zhi
-12.753639217252195 0.4840353637931425 0.1530374861115782 xy xz yz

Masses

1 28.0855
2 15.9994

Atoms # full

3 1 1 0 1.6758564285149582 -1.0370483410254934 -2.019126573406278 0 0 0
8 1 2 0 1.048812909360357 0.1519887405624143 -0.791115426232667 0 0 0
17 2 2 0 5.6538007393739385 -0.6736535739645167 0.10160029517313962 0 0 0
11 2 1 0 6.194375251016018 1.0104977050671917 0.3709801779514419 0 0 0
12 2 1 0 6.707407922329352 -0.7525195247370456 -1.3947161605387943 0 0 0
20 3 1 0 11.269133225428064 1.347203018148479 -0.3706431532373069 0 0 0
26 3 2 0 11.804119734863761 -0.27002690223227876 -1.0034912186078915 0 0 0
35 4 2 0 16.218871170819284 -0.2438780232848199 -0.5535555087706625 0 0 0
30 4 1 0 17.638321962287257 -0.23412695206775735 -1.6194055196268473 0 0 0
29 4 1 0 16.72921844085088 1.4270007843734307 0.0678468670983512 0 0 0
39 5 1 0 23.439030522604526 -0.5426435574320482 -1.6038157058555926 0 0 0
44 5 2 0 22.835392808628256 1.0312117342803622 -0.9784640957552462 0 0 0
48 6 1 0 -1.370264719076641 4.213560911317962 -1.5057855583356274 0 0 0
2 1 1 0 0.5375665290165133 1.6920724542261953 0.09148069416861082 0 0 0
7 1 2 0 0.006582015454531964 3.250324220008528 -0.8612347199598631 0 0 0
57 7 1 0 4.345914579751476 3.670424475162739 -1.2615491539666635 0 0 0
16 2 2 0 5.241202858550187 2.328063117216472 -0.586599106286682 0 0 0
25 3 2 0 10.52421689208572 2.7870688029714605 -1.0865841196246695 0 0 0
66 8 1 0 10.300631694638572 4.081429703561586 -2.316533030108745 0 0 0
75 9 1 0 15.310053635640289 3.1107983068399063 -1.0470118348664192 0 0 0
33 4 2 0 14.94371350911353 2.1741255786660227 0.5377050834238202 0 0 0
981 109 2 0 16.062750255657647 4.332479951145696 -2.2631919852861473 0 0 1
34 4 2 0 16.91405971064858 3.1716192238267054 -0.21071373616749822 0 0 0
38 5 1 0 22.08451495058206 2.1136776671206907 0.18823352427808393 0 0 0
43 5 2 0 21.04571100513516 3.0049049407863953 -0.9298611863807693 0 0 0
84 10 1 0 20.58249713517769 4.1781025545799535 -2.2352299056736658 0 0 0
49 6 2 0 -5.732314465133191 6.753878275307432 0.303764799351526 0 0 0
53 6 2 0 -2.837734932644288 5.075472532494165 -0.8084133683650467 0 0 0
47 6 1 0 -1.8461259531493328 6.1259702860613094 0.18563047519644904 0 0 0
62 7 2 0 3.5788283480983747 5.016432015972986 -0.40181695172425824 0 0 0
56 7 1 0 3.165962993791111 6.631781886822846 0.254948376987123 0 0 0
70 8 2 0 7.170205806989861 6.615476431245416 -0.9037317113418784 0 0 0
65 8 1 0 7.948338297650601 5.3139438582420695 -0.010482565789025067 0 0 0
71 8 2 0 8.990598968461446 4.673993373471077 -1.2764700006683352 0 0 0
74 9 1 0 13.48760219629173 6.033505888086605 0.08454841622039799 0 0 0
80 9 2 0 14.14832129098929 4.406091327437809 -0.4485891169371943 0 0 0
986 110 2 0 16.611324594882205 6.464692322668336 -1.7721837221268468 0 0 1
88 10 2 0 18.645498820865043 7.185601268459271 -0.7723272474795417 0 0 0
83 10 1 0 19.231626479576327 6.088734417969177 0.5238054895315529 0 0 0
89 10 2 0 19.814955899790178 5.174404729577893 -0.9170572988864873 0 0 0
98 11 2 0 -3.5514774406272807 9.724596219386482 -0.6798808240116327 0 0 0
93 11 1 0 -3.037926936965043 8.658541446696592 -2.0296741119422164 0 0 0
52 6 2 0 -2.536013065323297 7.456937772232786 -0.8419636695765966 0 0 0
102 12 1 0 1.8398566280418729 8.136694303593083 -1.2909748262725165 0 0 0
107 12 2 0 1.0290237844890862 9.42623251478489 -0.1912273754563487 0 0 0
1008 112 2 0 2.714228459894448 9.654972950264263 -1.9487164636245304 0 0 1
61 7 2 0 3.1966287195178866 8.340359720698688 -0.24800475882452755 0 0 0
111 13 1 0 6.515661070818169 8.230751630131616 -1.5369681206529335 0 0 0
116 13 2 0 7.79420594655836 8.739243034364764 -0.4327132566888845 0 0 0
1017 113 2 0 6.980868635592149 9.970633391370194 -1.9721919071128247 0 0 1
110 13 1 0 6.619561292824665 10.045247200714234 -0.10620361371845899 0 0 0
79 9 2 0 12.393660720368436 7.336674147896598 -0.4589422394773357 0 0 0
120 14 1 0 11.876945190971613 8.770436311997743 -1.4531306856358046 0 0 0
125 14 2 0 11.293432303587434 9.025420014601023 0.2722348443124636 0 0 0
134 15 2 0 17.055154181035313 9.181918815316578 -1.314178161768913 0 0 0
129 15 1 0 17.69646482126074 7.787468721377612 -2.2077214591944005 0 0 0
96 11 2 0 -6.467085589745663 10.259093349052542 0.0034639002626768445 0 0 0
92 11 1 0 -4.814124378715108 10.682354116017292 0.22246656442107726 0 0 0
97 11 2 0 -5.295488951390419 11.712827055706258 -1.2297124444453125 0 0 0
106 12 2 0 -0.08544509625172014 11.604056908396677 -0.18317282910435262 0 0 0
156 18 1 0 4.734981606544494 12.731402969752047 -1.7644977122452212 0 0 0
1013 113 2 0 3.4174350370187305 11.663272900293002 -1.3075148132178365 0 0 1
115 13 2 0 5.676388601544476 11.547963458348706 -0.6711567950912656 0 0 0
124 14 2 0 10.790548411452676 12.165534416840664 -0.9374538236469057 0 0 0
119 14 1 0 11.406261088658432 10.779295409903442 0.04299265786056106 0 0 0
174 20 1 0 14.608038548482083 12.309978472077574 -2.317251636076684 0 0 0
133 15 2 0 15.449170077022698 11.442180484725444 -0.9876296719909796 0 0 0
128 15 1 0 16.61765341934619 10.415968937741333 -0.11158158939793861 0 0 0
143 16 2 0 -6.8423948350627315 14.266894912189576 -0.812253599122803 0 0 0
137 16 1 0 -7.688924450902485 15.106992466105941 0.47899541894680286 0 0 0
138 16 1 0 -6.202365512521274 13.05006360701021 -2.09861964422395 0 0 0
1044 116 2 0 -4.725935333442165 13.916652541909105 -1.805072935034879 0 0 1
147 17 1 0 -0.5530851141884661 13.020880959031237 -1.306736090153682 0 0 0
152 17 2 0 -1.4355533443586683 13.305022019093382 0.2157259118714987 0 0 0
146 17 1 0 -1.6641649217600605 14.993382931845522 -0.04440452043200782 0 0 0
161 18 2 0 4.40694670296822 14.315297535161234 -0.9499341779089889 0 0 0
155 18 1 0 3.6933286681424837 15.56218270356383 0.26156489395167615 0 0 0
170 19 2 0 8.147135017397023 14.229011861169072 -0.573038312628775 0 0 0
165 19 1 0 9.621429815433071 13.473877241942134 -1.346718327553812 0 0 0
164 19 1 0 9.167851536464578 15.23413119851041 0.3746214936964627 0 0 0
173 20 1 0 13.969323572798825 14.568818941491209 0.415679968345116 0 0 0
179 20 2 0 14.405817696621268 13.394661010978883 -0.9120552211453763 0 0 0
183 21 1 0 -8.521558036940021 17.573913996961522 -1.8946356185806599 0 0 0
142 16 2 0 -8.333472589047787 16.245332393655538 -0.6595789921488262 0 0 0
192 22 1 0 -3.700130843212868 17.374565517737892 -1.6996418721594941 0 0 0
197 22 2 0 -4.764512578189125 18.22749811117057 -0.47756083235065416 0 0 0
151 17 2 0 -2.4106814181077265 16.32754013615262 -1.07680702956229 0 0 0
201 23 1 0 2.1406468065574744 17.083882009183554 -1.1717443850502796 0 0 0
206 23 2 0 1.0846203641767156 18.329540750977394 -0.3012963763961114 0 0 0
160 18 2 0 3.7853063773236952 16.43548954041576 -1.2644922681122996 0 0 0
1107 123 2 0 2.750210891663552 18.444046930994766 -2.1431516081901867 0 0 1
210 24 1 0 7.660866750180107 17.510006415314308 -1.89088813016494 0 0 0
215 24 2 0 6.918594299449229 18.40220547471082 -0.4851579380074258 0 0 0
169 19 2 0 8.36176299193932 16.59569461605509 -0.4940635904705142 0 0 0
1116 124 2 0 9.011648161149763 18.590988744768154 -1.5695709413232746 0 0 1
219 25 1 0 12.992184716749026 17.75368946213309 -0.9958820685408287 0 0 0
178 20 2 0 13.478883707376061 16.13878886739979 -0.1750186689359312 0 0 0
1076 120 2 0 12.133879152527353 16.799656482896467 -2.3335062929249037 0 0 1
182 21 1 0 -9.795857288652563 19.701496829263668 0.6195091425745991 0 0 0
187 21 2 0 -10.501729896399535 20.89457837017555 -0.4712357879955589 0 0 0
188 21 2 0 -8.950187702647476 18.748321926508716 -0.6220445333605613 0 0 0
196 22 2 0 -5.299217408858418 20.60230455144503 -0.4393263237666991 0 0 0
204 23 2 0 -1.5482435263293575 19.368851001488764 0.6182792905771555 0 0 0
21 3 1 0 -1.1066739157391394 21.260135782445644 -2.321473184592991 0 -1 0
205 23 2 0 -0.2701810593854024 20.273706465751253 -1.0646739678056654 0 0 0
200 23 1 0 0.19415938070637795 19.628165463665546 0.5738891850254215 0 0 0
214 24 2 0 5.304280819975314 21.04771905364813 -0.5853325055836014 0 0 0
209 24 1 0 6.256686638901661 19.837368514825428 0.371263810069407 0 0 0
1121 125 2 0 9.836490468207362 20.70454971906176 -2.1781578255093543 0 0 1
218 25 1 0 12.141475267127554 19.615797665516716 0.41552859093598604 0 0 0
223 25 2 0 11.490928522070064 20.899321390232487 -0.7494725654202035 0 0 0
45 5 2 0 -2.5955972016501945 0.9067458578675218 2.926810678298163 1 0 0
1 1 1 0 -1.3244775869404448 1.3546140080993987 1.7265449504100703 0 0 0
6 1 2 0 0.08684445354608727 0.39518351341444524 1.1460873265023777 0 0 0
15 2 2 0 4.5654230467889185 1.034523782778483 1.15117560524702 0 0 0
10 2 1 0 3.2933868166604414 1.4197012724607605 2.3443690561441324 0 0 0
9 1 2 0 2.760673296909662 0.40862987188049216 3.665822292754263 0 0 0
18 2 2 0 8.065951487468267 0.692021498691914 3.4408095954472797 0 0 0
22 3 2 0 7.919935776985666 1.240275740670715 1.1951543568208902 0 0 0
31 4 2 0 12.641593040246605 1.2312084242009078 0.7273119521125291 0 0 0
27 3 2 0 13.024111777694127 1.0048213237140922 3.2181562450039376 0 0 0
203 23 2 0 11.728265432000876 -1.1047491983851554 3.169897416176096 0 1 0
36 4 2 0 18.579366724936477 1.2677251299771868 3.651420832164666 0 0 0
221 25 2 0 22.81523948622054 -1.0503587889395127 3.050548741839851 0 1 0
4 1 2 0 -2.842204009585827 1.9418503762732486 0.9895018395896575 0 0 0
5 1 2 0 -1.4160332358982435 2.9073359336019564 2.711203964094624 0 0 0
13 2 2 0 2.1333808600210284 1.534997597893395 0.9684474385151836 0 0 0
14 2 2 0 4.335825967639305 2.4482242606899463 3.325498705653393 0 0 0
63 7 2 0 5.698319276780086 4.207029658124955 2.4837021186584662 0 0 0
19 3 1 0 9.140772828190848 1.5709891873732529 2.3863256032585616 0 0 0
24 3 2 0 10.135957994534307 1.667633099617221 0.9368472127745413 0 0 0
28 4 1 0 13.804674614622352 1.842618045838392 1.915710261709294 0 0 0
32 4 2 0 14.38480634930116 2.8437091653996847 3.2596443869100424 0 0 0
40 5 2 0 18.20422911863554 1.8566904334874814 1.0982179232258238 0 0 0
37 5 1 0 19.359292817550333 2.170217517720338 2.34431370138779 0 0 0
42 5 2 0 20.667302591375112 2.361894576485557 1.2421944281552926 0 0 0
41 5 2 0 20.352064191105313 3.1234548064006606 3.4538525512626173 0 0 0
46 6 1 0 -5.106523930526855 6.298895395567747 1.9141019248039512 0 0 0
51 6 2 0 -3.620002551125501 6.401534716147378 0.8858615002316834 0 0 0
50 6 2 0 -4.32271361100371 7.189287456422848 3.28427373523928 0 0 0
58 7 2 0 -0.23022153697251557 6.19258008884513 1.1548403688191247 0 0 0
55 7 1 0 0.8411164089744232 5.712712347439619 2.635052378116306 0 0 0
60 7 2 0 1.990229300587238 5.599780133879142 1.1625931270595111 0 0 0
59 7 2 0 1.9023636813408902 6.692676403243686 3.725918174986739 0 0 0
67 8 2 0 4.369701868421698 6.05622267955884 1.4710122648313941 0 0 0
64 8 1 0 5.6544627517220105 5.927426261216558 2.7068818688940874 0 0 0
69 8 2 0 6.718917394542249 5.695784015135354 1.2225194757347828 0 0 0
76 9 2 0 9.238175285286077 5.184726913099803 1.2161326968863917 0 0 0
72 8 2 0 10.088886137608572 4.795741711861625 3.6284756763497557 0 0 0
73 9 1 0 10.679701776166608 5.557196734723308 2.157689258976073 0 0 0
77 9 2 0 11.701386895377437 6.587685728986594 3.1157187959911408 0 0 0
78 9 2 0 12.023398075105536 5.73052792341688 1.0766324996167351 0 0 0
85 10 2 0 14.828974423097995 5.9483540508442205 1.1869362875819478 0 0 0
82 10 1 0 16.142236783634466 5.838168411621512 2.4962210477722566 0 0 0
86 10 2 0 17.016910266693678 7.183860145116586 3.4897189437439566 0 0 0
87 10 2 0 17.789553304347265 5.878829317162836 1.70355300446057 0 0 0
81 9 2 0 17.056062866744554 4.7911143133421055 3.555000789708915 0 0 0
90 10 2 0 21.134780001720422 5.194583424048865 3.3324081321563943 0 0 0
135 15 2 0 -7.419819615014703 9.587427171306496 3.064636229774135 1 0 0
99 11 2 0 -3.1926382854240103 9.360368988382362 3.397294448192709 0 0 0
108 12 2 0 3.2385030321426456 9.736357855444563 3.6783753079838757 0 0 0
121 14 2 0 7.782392289586298 9.863708089652482 1.3785085436385258 0 0 0
126 14 2 0 13.614042650409715 9.129426349821898 2.974997784673997 0 0 0
91 11 1 0 -6.862148232424788 10.62746195456061 1.701894345393983 0 0 0
95 11 2 0 -6.466778692645466 11.61385255765429 3.1497024019167954 0 0 0
103 12 2 0 -3.393471743834464 10.603177229217039 1.3652063326657187 0 0 0
100 12 1 0 -2.1410037556894075 10.629784428943228 2.670606233701027 0 0 0
104 12 2 0 -1.4975916301994676 11.98348278204956 3.70125978207241 0 0 0
105 12 2 0 -0.31545994797263743 10.688954906005966 2.2654611913023057 0 0 0
101 12 1 0 0.939705286123159 10.721668358434213 1.0534348982174802 0 0 0
112 13 2 0 2.293715527822777 11.050131346338178 2.225835385582487 0 0 0
109 13 1 0 4.108718279917945 10.957385388977539 2.648172641656589 0 0 0
113 13 2 0 5.364603009812143 12.188390323594815 2.6744823062204004 0 0 0
114 13 2 0 5.452173092925754 10.4707326034888 1.3338035929927998 0 0 0
118 14 1 0 8.899639153365179 10.64385581321039 2.480719542781123 0 0 0
123 14 2 0 10.130060467146514 10.962543404430978 1.2720064942408564 0 0 0
122 14 2 0 9.638168226281914 11.89701644284718 3.4607816311750463 0 0 0
130 15 2 0 12.614371985507006 10.643081391576958 1.444293068242969 0 0 0
127 15 1 0 14.100080627688916 10.728318868215126 2.3274424246284013 0 0 0
132 15 2 0 15.523503683328782 10.780945871721778 1.2244101403918766 0 0 0
131 15 2 0 14.85742088294903 12.187277339110222 3.107411367794886 0 0 0
94 11 2 0 18.074489350559453 10.355189826381585 0.8559388940379096 -1 0 0
141 16 2 0 -9.148748296027035 15.604818878323501 1.4602117176021898 0 0 0
148 17 2 0 -6.194259150959379 14.673043733644887 1.3569830574164352 0 0 0
144 16 2 0 -5.220481339609034 13.758085211994311 3.188144898475179 0 0 0
145 17 1 0 -4.506986138315913 14.90955368315304 1.9918313910130472 0 0 0
150 17 2 0 -2.899653631390322 15.222326717032507 1.209377785193079 0 0 0
157 18 2 0 -0.5920617269035657 15.102301055707665 1.4451254410942096 0 0 0
153 17 2 0 -0.21721845281918184 14.215396434728817 3.5446279256888173 0 0 0
154 18 1 0 0.9422119438475147 15.136103774278167 2.404505375382601 0 0 0
159 18 2 0 2.586856107577497 15.186164794771853 1.7062425363344147 0 0 0
166 19 2 0 4.776116515826224 15.506438557742007 1.7674514588332544 0 0 0
162 18 2 0 5.524231400279455 14.183443271534404 3.5325637759227524 0 0 0
168 19 2 0 7.847657311863443 15.322910941434268 1.6247693212897967 0 0 0
163 19 1 0 6.345553631064474 15.550935600616283 2.6350300042117807 0 0 0
175 20 2 0 10.584345441153268 15.259924624771172 1.5598285723513063 0 0 0
177 20 2 0 12.720304232518957 14.633763996560868 1.7205571888818527 0 0 0
172 20 1 0 11.59900009026119 14.93766216703998 3.054647024431298 0 0 0
139 16 2 0 15.11514013274918 15.292289418584852 1.5897156152359173 -1 0 0
136 16 1 0 -10.28259192133585 16.009317628861666 2.8467169563504315 0 0 0
195 22 2 0 -6.096800831742656 18.154383730179298 1.5807654105038509 0 0 0
149 17 2 0 -3.6626557206476074 15.948563015381952 3.208257740830775 0 0 0
158 18 2 0 1.6073407868001222 16.3827443071931 3.4651920555015288 0 0 0
207 23 2 0 2.4197476508015807 18.62032507189459 3.31489815407234 0 0 0
167 19 2 0 7.449765256813674 16.75769259813432 3.4484708983632473 0 0 0
224 25 2 0 12.739460044467146 17.978222618848726 0.8003412475804019 0 0 0
181 21 1 0 -12.16002799975372 20.287963540153704 3.160075624626039 0 0 0
184 21 2 0 -13.289184959992905 19.81708559304149 1.8760211559578375 0 0 0
186 21 2 0 -11.048409751312583 20.11651577245201 1.7609383242011312 0 0 0
190 22 1 0 -6.866492334340324 19.48476743527229 2.5363254010778924 0 0 0
193 22 2 0 -8.416435956787923 19.171301220337206 1.5957283354189111 0 0 0
194 22 2 0 -6.538904731764244 20.858467944133167 3.663950367408882 0 0 0
191 22 1 0 -5.02265962968243 19.40809697762365 0.875530547219495 0 0 0
202 23 2 0 -3.5106864422530872 20.290309852635936 1.5196342400541996 0 0 0
198 22 2 0 -2.3069298426433646 18.803719845590393 3.0177762214482398 0 0 0
199 23 1 0 -1.7594461050523635 20.30347155579215 2.128058993920913 0 0 0
211 24 2 0 1.735515884900749 19.61408795394489 1.5250922311662154 0 0 0
212 24 2 0 4.297295071892168 21.20784417771081 3.123862446399607 0 0 0
208 24 1 0 3.321127810115245 19.924750025671386 2.3059817278708747 0 0 0
213 24 2 0 4.909998950069944 20.05725094090908 1.5064154586690885 0 0 0
220 25 2 0 7.646301033888932 19.92131027696719 1.4757189023448976 0 0 0
216 24 2 0 8.569668073840539 18.916317357989186 3.202133954762119 0 0 0
217 25 1 0 9.256667639474099 20.310922384874743 2.233447099703074 0 0 0
222 25 2 0 10.811626302769602 20.27915758074525 1.4118054038544252 0 0 0
228 26 1 0 1.907044166793559 -0.8208965693615803 4.742523183419985 0 0 0
233 26 2 0 1.1013523813961514 0.8107994206879265 5.121136698924044 0 0 0
236 27 1 0 5.821469938463503 0.8465893131572644 6.086050850851414 0 0 0
242 27 2 0 5.584053482840265 -0.8479528188370822 5.427917949825447 0 0 0
237 27 1 0 7.065922899438677 -0.5472987115005923 4.459432982606668 0 0 0
245 28 1 0 11.118205857363403 0.6667356041547849 6.337435152092869 0 0 0
246 28 1 0 12.580648926980174 -0.2086665633645146 4.522369592813163 0 0 0
251 28 2 0 11.179224572787403 -0.8754874616926351 5.366847525321531 0 0 0
255 29 1 0 17.893164665817693 -0.3522431472682157 4.218916408946021 0 0 0
260 29 2 0 16.960094791107473 0.8365448475910013 5.208880247035306 0 0 0
439 49 2 0 19.533899431467702 -0.922343846406249 4.344759776628534 0 1 0
269 30 2 0 22.42237754455865 0.8887732596916522 5.823400772431723 0 0 0
264 30 1 0 23.22389386741849 0.12346782124062217 4.361522535720545 0 0 0
448 50 2 0 23.4317420745339 -1.029792482988716 5.630123106800101 0 1 0
273 31 1 0 -0.7849228931506875 4.17400802006405 3.848225617124247 0 0 0
227 26 1 0 0.30455127779648494 1.919043766062309 6.3019757179044085 0 0 0
232 26 2 0 0.012703878413183656 2.8410762642271594 4.772089097843333 0 0 0
282 32 1 0 5.074058791682886 3.9152974238776936 4.155141694248947 0 0 0
241 27 2 0 5.616962568720051 2.593690375048425 5.35759352432501 0 0 0
23 3 2 0 9.594610314405212 2.5329239166350423 3.7912083944129717 0 0 0
250 28 2 0 10.640847934170596 2.3453898358446366 5.885089708766895 0 0 0
291 33 1 0 9.888352826170733 3.733859864747571 5.0418624461787465 0 0 0
254 29 1 0 16.09234274011827 1.5659333553912327 6.566391535985614 0 0 0
300 34 1 0 15.505610673925824 4.055731005484629 4.106550441192579 0 0 0
259 29 2 0 15.328593920972812 2.708896496857422 5.408672208121183 0 0 0
268 30 2 0 21.243616874734904 2.895892587240885 5.87380793043471 0 0 0
309 35 1 0 20.603574409379846 4.308326208380117 4.8247575338538935 0 0 0
314 35 2 0 19.60973434658076 4.358926567035284 6.33240264653425 0 0 0
278 31 2 0 -1.6736065653131194 5.272596766516134 5.015625474847026 0 0 0
272 31 1 0 -2.2377219136167703 6.6598472291974335 6.054504242987521 0 0 0
54 6 2 0 0.6186077190283981 5.09735275476948 4.299474139565722 0 0 0
287 32 2 0 4.760974266500159 4.690189850196903 5.827666038528481 0 0 0
286 32 2 0 2.9515307833865876 7.201081384824889 5.787079173149078 0 0 0
281 32 1 0 3.8831513273983616 5.972872467764988 6.77732312654846 0 0 0
296 33 2 0 9.141595250298074 5.259188370472618 5.673342028193087 0 0 0
290 33 1 0 8.745134982710855 6.904960396801743 6.11035966385883 0 0 0
304 34 2 0 12.889939616687395 6.55976722367636 5.097560912926249 0 0 0
299 34 1 0 13.317811895339863 5.526952571674969 6.522054411826415 0 0 0
305 34 2 0 14.033131707477738 4.681940339334053 5.016507624448128 0 0 0
308 35 1 0 19.501190821836012 6.087309402309863 6.201389448980498 0 0 0
318 36 1 0 -3.7509943874010663 8.18157758919557 4.6334546105938035 0 0 0
323 36 2 0 -4.391310671178661 9.731530761663302 5.415608729938009 0 0 0
277 31 2 0 -2.235083180429949 7.36470871829294 4.370693848652606 0 0 0
332 37 2 0 1.7737507330352171 9.449019743247353 5.6196764485375414 0 0 0
327 37 1 0 2.5026867577816185 8.29451365151132 4.476202675679521 0 0 0
117 13 2 0 8.044195137509579 9.793600036876365 3.7835584854118736 0 0 0
68 8 2 0 6.089102048194774 7.311963079373346 3.9124397878801265 0 0 0
336 38 1 0 7.296433601827367 8.466534727401418 4.791864648901421 0 0 0
341 38 2 0 6.925405156544423 9.929365682605603 5.916321912345879 0 0 0
295 33 2 0 8.928462806240773 8.552140970706013 5.367537536752841 0 0 0
345 39 1 0 12.766884580109215 7.798034936341622 3.840474503412149 0 0 0
350 39 2 0 12.645686809968174 9.065507335938474 5.118370128062023 0 0 0
313 35 2 0 18.91466979313477 7.397471850361118 5.080449235576597 0 0 0
354 40 1 0 18.075616053664298 8.50870083349985 4.058384717782812 0 0 0
359 40 2 0 17.624063518435342 9.935833466063976 4.954224049613186 0 0 0
363 41 1 0 -5.95368208530058 12.74259600306906 4.445637983217049 0 0 0
317 36 1 0 -4.533282126944819 11.429383494960497 6.010415692513726 0 0 0
331 37 2 0 -0.3775303536219514 11.714702122623523 5.689812925401533 0 0 0
326 37 1 0 0.6229687027012418 10.481078304936965 6.514099324700462 0 0 0
381 43 1 0 5.087904305220077 12.623710308657065 4.322698901148299 0 0 0
340 38 2 0 5.200789452664396 11.666864719260582 5.9079219333534745 0 0 0
344 39 1 0 11.937111588411769 10.586523342456283 5.813994074072529 0 0 0
349 39 2 0 11.211903130623476 11.964230955261208 4.965674045259716 0 0 0
353 40 1 0 16.588524413941876 11.080097319107871 5.937024864834182 0 0 0
358 40 2 0 16.787188386434046 11.898441666202912 4.323355528231455 0 0 0
368 41 2 0 -6.7464216819093465 14.182608068963603 5.321096624945567 0 0 0
362 41 1 0 -7.536393611026614 15.621750285430002 6.039304986934461 0 0 0
322 36 2 0 -4.477485825100736 13.145346584532176 5.300017407657365 0 0 0
372 42 1 0 -0.8189830553401589 13.173463189031095 4.799347416974449 0 0 0
377 42 2 0 -1.0325797690998628 14.801098897067716 5.631728235410505 0 0 0
386 43 2 0 4.733566721237246 13.740759685452636 5.7189566764913735 0 0 0
380 43 1 0 3.7764490335160925 15.034732487488759 6.480896045631992 0 0 0
395 44 2 0 9.219100680625948 14.568368793169821 5.534235297542452 0 0 0
390 44 1 0 10.120976094898133 13.327786230707792 4.455164915272634 0 0 0
171 19 2 0 11.37630419271621 14.471734734524025 4.794844591762554 0 0 0
399 45 1 0 15.393143021497474 13.007777580231132 4.685767707761323 0 0 0
180 20 2 0 15.452677665702785 14.67460905229479 3.87179849384158 0 0 0
404 45 2 0 14.683668246475152 14.054387403803473 6.001392971733786 0 0 0
140 16 2 0 -10.50789454185791 16.94048802184485 4.354593893186413 0 0 0
413 46 2 0 -9.614263370003425 18.585743248688452 5.568559880804596 0 0 0
189 21 2 0 -7.578228217514742 18.637059704373712 3.9326447926175074 0 0 0
408 46 1 0 -8.772823676758474 17.287484071927594 4.543032614625401 0 0 0
367 41 2 0 -7.1527271399709775 16.423965381592488 4.483054802723762 0 0 0
371 42 1 0 -1.633562424012716 15.970787928311603 6.763089759880517 0 0 0
417 47 1 0 -3.0637178385605894 17.48716609500049 3.9233534112968824 0 0 0
376 42 2 0 -2.5532752942000654 16.620466873718826 5.376415653910346 0 0 0
426 48 1 0 2.1164498122873314 17.560993648430475 4.670448123579188 0 0 0
385 43 2 0 2.703748866677003 16.034219354503655 5.39666001685286 0 0 0
435 49 1 0 7.9073779766322385 18.0526006017299 4.578424354698783 0 0 0
394 44 2 0 8.514457270320632 16.678068045005666 5.571127576539309 0 0 0
176 20 2 0 12.242972289566731 16.339913087161847 4.051985502983883 0 0 0
444 50 1 0 12.676386038236961 17.850656654617225 4.972315166384591 0 0 0
403 45 2 0 13.140870863375541 16.88052332115103 6.433422898018486 0 0 0
185 21 2 0 -12.44091994955038 21.22309083855116 4.71807238893929 0 0 0
412 46 2 0 -10.345782815302085 20.73149693589692 6.048223213881885 0 0 0
416 47 1 0 -4.1033812004236285 19.65523667018457 6.502637890962911 0 0 0
421 47 2 0 -4.998911510141257 20.781946155667896 5.3882142623683436 0 0 0
422 47 2 0 -3.5258129675718903 18.864360785958958 4.98386263921011 0 0 0
430 48 2 0 1.0308115033743843 21.425926798496228 5.393818869784563 0 0 0
431 48 2 0 1.5044794471349197 19.148319069734697 5.342143526320382 0 0 0
425 48 1 0 1.2922980069921444 20.289740852045256 6.771666363661039 0 0 0
436 49 2 0 2.9999269423956685 20.525080086687986 6.374136396594967 0 0 0
434 49 1 0 6.454392222010313 20.970293137034417 5.9125535793400275 0 0 0
440 49 2 0 7.1591363685932325 19.639349534750792 4.977967865053268 0 0 0
225 25 2 0 13.220368496751766 19.28423030698881 4.14960761082969 0 0 0
449 50 2 0 11.879286418216468 18.91942381709196 6.100365730097799 0 0 0
234 26 2 0 2.1265097148752607 0.13793927391889227 8.92237593823927 0 0 0
410 46 2 0 0.2780369422461839 -1.2745529690017068 8.864177432449683 0 1 0
249 28 2 0 9.952554129923199 1.2066000640445664 7.61574752471525 0 0 0
243 27 2 0 9.240073696907501 0.18995813653803606 9.43484810366843 0 0 0
244 28 1 0 8.341215412372721 1.3200593231562463 8.458262738214687 0 0 0
253 29 1 0 13.44167866889381 1.3978818373073514 8.889859532163385 0 0 0
256 29 2 0 12.19891139073219 1.4523417907160652 7.624253674328088 0 0 0
261 29 2 0 18.122961001222087 0.5115202390628333 9.41684560304217 0 0 0
262 30 1 0 19.155598945564293 1.3818971340435469 8.262073124321834 0 0 0
265 30 2 0 17.629687553284157 1.183176801299842 7.360086205075554 0 0 0
267 30 2 0 20.881862369674124 1.4042911846746473 7.7274963434929 0 0 0
270 30 2 0 23.551480085510427 0.25391383872637974 9.689661779757559 0 0 0
231 26 2 0 -0.7540511219619304 1.7774472551690517 7.731434982307544 0 0 0
229 26 2 0 -2.737012931972883 3.1717859593432296 7.811785925950698 0 0 0
226 26 1 0 -2.254857817045646 1.772693933449236 8.74171892394499 0 0 0
230 26 2 0 -1.4891864753898245 3.205550100812557 9.646655715489254 0 0 0
238 27 2 0 1.6063493363754313 1.640334471550875 7.456739096182451 0 0 0
240 27 2 0 4.640396312584903 1.522348051208279 7.371760767122302 0 0 0
235 27 1 0 3.1650415250075916 1.5696463801845857 8.362348082632563 0 0 0
239 27 2 0 4.275301992041169 2.5877250249920536 9.361738750938082 0 0 0
247 28 2 0 6.954047123620839 1.5845581955511094 7.299096598628648 0 0 0
248 28 2 0 9.199089629446663 2.5869590008799936 9.456409451405861 0 0 0
297 33 2 0 10.882307064860516 4.367647225177851 9.131124390732658 0 0 0
258 29 2 0 14.565018129395105 1.740667157532612 7.52489428876004 0 0 0
266 30 2 0 19.654333049725096 2.4603951855541397 9.511158434827394 0 0 0
263 30 1 0 22.37818510408833 2.222305296406071 7.110462339885903 0 0 0
271 31 1 0 -4.518308653664645 6.2701769374969025 8.633725606187548 0 0 0
276 31 2 0 -3.105972038628578 6.669814414730542 7.702502072600128 0 0 0
283 32 2 0 -0.8985366558270607 6.381394767762878 7.3271742004635705 0 0 0
285 32 2 0 2.169251633252431 5.892989578213041 7.396791115778813 0 0 0
279 31 2 0 1.4563923149457234 4.906347282424252 9.451556617158246 0 0 0
280 32 1 0 0.5930534895269441 6.020581355184995 8.340693761254528 0 0 0
284 32 2 0 1.6543459004046372 7.168189911781708 9.304691303715172 0 0 0
292 33 2 0 5.4247620965684655 6.063650145868352 7.651082712606717 0 0 0
294 33 2 0 7.710558811865715 6.189575241048974 7.3752194946383 0 0 0
289 33 1 0 6.692352059464431 6.541111796059182 8.858907201183985 0 0 0
301 34 2 0 10.06746804097787 6.762354057402991 7.270265939873376 0 0 0
303 34 2 0 12.824477646399112 4.962423802499458 8.185199618498862 0 0 0
298 34 1 0 11.38413902168614 5.940864733502072 8.27924931303838 0 0 0
302 34 2 0 12.255900157706472 7.148435324192729 9.412947735260603 0 0 0
310 35 2 0 14.868457802229068 5.440785021374545 7.499400604691036 0 0 0
306 34 2 0 16.099054864743607 4.67692414974522 9.324621148724281 0 0 0
307 35 1 0 16.491500463358285 5.83848742184399 8.058154953757136 0 0 0
312 35 2 0 17.948246113306958 6.247632508687906 7.079881873548883 0 0 0
311 35 2 0 17.247896471071456 6.873164210088106 9.264062347939193 0 0 0
315 35 2 0 21.28581763169464 5.004285721370738 9.681809360496247 0 0 0
274 31 2 0 20.441128301940402 6.0653539635149425 7.795988774763648 -1 0 0
342 38 2 0 8.699505043653083 9.726430022254457 9.366276552517245 0 0 0
351 39 2 0 13.14325712446126 9.409034033707849 9.458455811837062 0 0 0
360 40 2 0 18.481950353759167 9.747219780319643 9.413241653637847 0 0 0
316 36 1 0 -7.214383100699109 10.736060493995968 8.210940403103967 0 0 0
320 36 2 0 -6.2907911701336765 11.965140374733453 9.11266060180758 0 0 0
321 36 2 0 -5.660541676867794 10.739633125452619 7.317670185763141 0 0 0
328 37 2 0 -3.3918296324737147 10.704408832105917 7.295782998234587 0 0 0
330 37 2 0 -0.6891235714678348 10.578698155189002 7.727553487277586 0 0 0
325 37 1 0 -2.231766260250513 10.707944738261538 8.691609832332798 0 0 0
329 37 2 0 -1.3217781060514087 12.024309355476111 9.594451769114265 0 0 0
337 38 2 0 2.12521428468737 10.509387126709116 7.453168435237075 0 0 0
339 38 2 0 4.410946472736935 10.571850711258701 7.8531591216359935 0 0 0
334 38 1 0 3.112796438992625 10.440540913215964 9.046102722997512 0 0 0
335 38 1 0 6.1175618239206875 10.800310608548235 7.2039641601971365 0 0 0
346 39 2 0 7.712981218022204 10.933718500258669 7.995007785770577 0 0 0
343 39 1 0 9.565231044914762 11.129074500530947 8.517530610109127 0 0 0
347 39 2 0 10.853751031513562 12.35621401541074 8.653073155544034 0 0 0
348 39 2 0 10.760648201939672 10.977799644620339 7.067932521026448 0 0 0
355 40 2 0 13.018135631944705 10.15106196443412 7.169707563787387 0 0 0
357 40 2 0 15.488122765396737 10.774631438964072 7.370080359619573 0 0 0
352 40 1 0 14.157526143762325 10.581963874216735 8.512379563310576 0 0 0
356 40 2 0 14.93125028283581 11.897614740931227 9.350418650942252 0 0 0
319 36 2 0 17.76008973001793 10.684463550948584 7.33077968839498 -1 0 0
361 41 1 0 -9.638641841705057 14.890241507113904 8.954549584731199 0 0 0
366 41 2 0 -8.661727683836558 15.435793577683087 7.49918185631817 0 0 0
373 42 2 0 -6.255406270861672 15.445424178560549 7.335609673730019 0 0 0
369 41 2 0 -5.3796258381481765 14.526925899864038 9.301282365448243 0 0 0
370 42 1 0 -4.8052576451462645 15.803585824805376 8.241166008329387 0 0 0
384 43 2 0 2.327097924764856 15.379329687409582 7.427171770658489 0 0 0
379 43 1 0 1.2452135120082155 15.641891679720528 8.858373890885428 0 0 0
391 44 2 0 5.062670721989989 15.517336810901652 7.615389256275508 0 0 0
387 43 2 0 6.113655980572178 14.108875546914897 9.221750980823309 0 0 0
388 44 1 0 6.698896986252503 15.623538422470494 8.36925983269562 0 0 0
393 44 2 0 8.141028583045005 14.550607325153155 8.241476324762052 0 0 0
389 44 1 0 8.810795926018464 15.604505007782171 6.974736768979419 0 0 0
400 45 2 0 10.23448418594207 15.83206967497087 8.173931338303777 0 0 0
402 45 2 0 12.490680480097017 15.423291261569803 8.036746651957209 0 0 0
364 41 2 0 15.660352282358096 15.07697621529284 7.610352867495767 -1 0 0
398 45 1 0 14.020833784712666 15.351468806703663 7.015407763806069 0 0 0
411 46 2 0 -10.883468715627293 18.48398873272533 8.607675387925397 0 0 0
414 46 2 0 -7.531689996124704 18.278995068859395 9.63184872974574 0 0 0
374 42 2 0 -4.082577042930803 16.513030259584305 9.669830463954268 0 0 0
375 42 2 0 -3.310736605329543 16.29989036329168 7.394240102167407 0 0 0
382 43 2 0 -0.056124141352124735 15.883510815305362 7.601084384123407 0 0 0
383 43 2 0 1.763737801439052 17.24392132247801 8.53859040868588 0 0 0
392 44 2 0 6.2529549105493825 17.3726512320194 8.48661753701216 0 0 0
397 45 1 0 11.51545933791452 15.974591728440545 9.450396016553716 0 0 0
406 46 1 0 -12.16689515738045 19.744617802176478 8.823245397825078 0 0 0
407 46 1 0 -10.211598083361002 19.31926206884716 7.159826187769328 0 0 0
418 47 2 0 -8.594987117704825 19.290952666577738 7.919663213965805 0 0 0
415 47 1 0 -6.9560846534542495 19.54879175336381 8.57331445723899 0 0 0
419 47 2 0 -6.197380205823958 21.020485018030683 9.289825312178804 0 0 0
420 47 2 0 -5.444008053791327 19.74736216307369 7.6061553841149845 0 0 0
427 48 2 0 -3.165334094864697 19.687114118332495 8.114516304822384 0 0 0
424 48 1 0 -1.564792341196593 19.993046984297457 8.937704989987278 0 0 0
429 48 2 0 -0.018284478754782008 20.302812258682224 8.126417976031313 0 0 0
432 48 2 0 3.0520252040092375 18.922625824810424 9.392769531652403 0 0 0
438 49 2 0 5.1779691724738495 20.478909603168766 7.160375411695739 0 0 0
433 49 1 0 3.5452526760725105 20.143685626996138 8.026674617035242 0 0 0
437 49 2 0 4.454088925166206 20.684143574700478 9.451660621489054 0 0 0
441 49 2 0 7.8001715720674 18.94069800191985 9.063988356250444 0 0 0
445 50 2 0 7.555694790380835 20.390574788095932 7.21374442196845 0 0 0
447 50 2 0 10.763998157005181 19.453646629565405 8.262908724788963 0 0 0
442 50 1 0 9.047264542567271 19.999548736359223 8.213813111226953 0 0 0
446 50 2 0 9.444247924565573 20.668545053870645 9.845061102863182 0 0 0
443 50 1 0 11.183846540061051 20.438438442268293 6.875998342683285 0 0 0
409 46 2 0 12.749244684267634 20.189049374111818 7.782133357765996 -1 0 0
673 75 2 0 -1.828839161061275 -0.5043135232518403 11.632644686704387 1 1 0
453 51 1 0 1.4711265018288717 -1.0152628860110864 10.14334278411532 0 0 0
458 51 2 0 1.685492256050023 0.26926774933439956 11.419073008351617 0 0 0
462 52 1 0 7.669733281114356 -0.518891480889609 10.069891760919546 0 0 0
467 52 2 0 6.379585906152558 0.2393204003938263 11.151400018936531 0 0 0
461 52 1 0 5.865457173192003 1.187772716931565 12.534755674077982 0 0 0
471 53 1 0 13.132320552928764 -1.1235702619998802 11.396561831952276 0 0 0
252 28 2 0 13.330839501667809 0.288555362807841 10.275609986432626 0 0 0
476 53 2 0 11.84705045475361 -0.11512731879095672 12.268008426350429 0 0 0
480 54 1 0 17.796161470003213 -0.7828258014641801 10.570932540398609 0 0 0
485 54 2 0 17.397577410061835 0.6574162449479486 11.535383731467542 0 0 0
494 55 2 0 22.66356817887897 0.5750466191032302 11.86117685861743 0 0 0
489 55 1 0 23.14864504303005 -0.9582356802874206 10.999289124665594 0 0 0
493 55 2 0 -4.480885571165471 3.9113435777426746 11.537069713738072 1 0 0
454 51 2 0 -2.949589699315132 2.585887987872387 12.771836478386465 0 0 0
452 51 1 0 1.2633609965832067 1.9094843372023176 12.250049625697102 0 0 0
457 51 2 0 0.9065797035212388 3.456101347575129 11.330233285859997 0 0 0
498 56 1 0 -0.10345655243475238 4.344756639393672 10.079937703587087 0 0 0
507 57 1 0 4.889476049542339 3.8760812092266432 10.459697320229676 0 0 0
466 52 2 0 5.1969624135223365 2.495510246700851 11.578465929129703 0 0 0
516 58 1 0 10.19801342218478 3.495804452770078 10.637415748014693 0 0 0
521 58 2 0 8.704509586392145 3.6656409376120447 11.530784006648986 0 0 0
475 53 2 0 10.800251319656963 2.2161196532075906 11.82902292569342 0 0 0
257 29 2 0 14.341942978771039 2.388553786776263 9.988871830600209 0 0 0
525 59 1 0 15.36270357118404 3.709000303083613 10.715155248421636 0 0 0
530 59 2 0 14.03359943685013 3.4879914720679697 11.86490224838539 0 0 0
484 54 2 0 16.187271133364668 2.4694595745199224 11.725255470144672 0 0 0
534 60 1 0 20.52412792494691 3.6282003784679793 10.634717746267834 0 0 0
488 55 1 0 21.94680989047911 2.2238029846024796 12.132083970207981 0 0 0
503 56 2 0 -1.2607729782743013 5.238546703570606 11.189051477976273 0 0 0
497 56 1 0 -1.5675646677504695 6.605702362540944 12.448692426689206 0 0 0
508 57 2 0 0.055238925280893136 7.208890444898824 12.47590108838899 0 0 0
512 57 2 0 4.32252874047758 5.0498186502857605 11.624485123951041 0 0 0
506 57 1 0 3.6842978295433397 6.2455138161514006 12.774088382210296 0 0 0
288 32 2 0 5.7234867701111325 5.338064123423886 9.856919480262137 0 0 0
293 33 2 0 6.784980497646723 7.1878689264767335 10.511764880524115 0 0 0
515 58 1 0 9.283646422526738 5.3235480514890074 12.063584781877408 0 0 0
520 58 2 0 9.083348255638914 6.926864694790462 11.322690097783637 0 0 0
529 59 2 0 13.436690133148735 6.711985510534335 11.248653477508263 0 0 0
524 59 1 0 14.051569194569987 5.278277704777573 12.106332315585204 0 0 0
535 60 2 0 15.254383426040286 6.447538390224503 12.886453936795002 0 0 0
538 60 2 0 18.446982962062414 6.792942925090319 11.027528828793907 0 0 0
533 60 1 0 18.813103595414468 6.0061437946094705 12.653346137241629 0 0 0
539 60 2 0 19.93623479598937 5.057214029627834 11.556327387501662 0 0 0
275 31 2 0 -3.888903484249212 7.338985132650619 9.894255848033415 0 0 0
548 61 2 0 -4.782372611176589 9.308003180049846 10.68901869885668 0 0 0
324 36 2 0 -1.4691316102454444 9.74568691800483 9.984714741372978 0 0 0
543 61 1 0 -3.074376633707001 9.005070577081185 10.33034911935551 0 0 0
502 56 2 0 -1.8066419200194848 7.776545222341756 11.048763570926424 0 0 0
511 57 2 0 3.2185483496464125 7.281892857989197 11.405551789761933 0 0 0
552 62 1 0 2.5174503132625583 8.449610496513667 10.228711658533928 0 0 0
333 37 2 0 4.016808399099524 9.311488643956976 10.080194492416902 0 0 0
566 63 2 0 7.412400953092359 9.512372308891477 11.293971422848568 0 0 0
561 63 1 0 8.175637191436735 8.197571436682576 10.179375138969537 0 0 0
570 64 1 0 12.710542101860835 8.213277344614104 10.685901318752588 0 0 0
575 64 2 0 12.16807992709033 9.589415932977856 11.709253191707038 0 0 0
579 65 1 0 17.80444578760671 8.284060118349158 10.21918312312968 0 0 0
584 65 2 0 17.093999190432193 9.571512441752608 11.319269431859816 0 0 0
542 61 1 0 -4.226639913219896 10.333599804136535 12.065222883030183 0 0 0
547 61 2 0 -5.19409681978258 11.627189562422434 11.203005162063649 0 0 0
551 62 1 0 1.179145379092267 11.276241603028394 11.889075024843697 0 0 0
557 62 2 0 1.9990728276043357 10.26018026921672 10.533080198851057 0 0 0
338 38 2 0 4.148647926218321 11.697029041789515 9.950400382152166 0 0 0
560 63 1 0 6.615651699010998 10.667254118982953 12.42758560051286 0 0 0
565 63 2 0 5.789505940141144 12.053849734324245 11.685790572092337 0 0 0
615 69 1 0 10.379424372380933 12.69622191489418 10.325516318978755 0 0 0
574 64 2 0 11.051618902260582 11.716509098478324 11.70519212891009 0 0 0
578 65 1 0 16.451755242048698 10.471994958864276 12.645465147888608 0 0 0
583 65 2 0 15.56638472342099 11.65650889363809 11.649638299154734 0 0 0
405 45 2 0 -9.406328466256 14.138285461966845 10.537113146468576 1 0 0
587 66 1 0 -6.725358207765106 15.356933679714357 12.74202900556695 0 0 0
588 66 1 0 -5.6018469224206395 13.077665836223389 10.308207622158543 0 0 0
593 66 2 0 -5.735614471395794 14.137578977824342 11.675050397927572 0 0 0
602 67 2 0 -0.9756441333417254 14.426054823085233 11.74367414509079 0 0 0
597 67 1 0 -0.2869195429304856 13.033513067322701 10.763804364088138 0 0 0
556 62 2 0 0.793372458632096 12.984103710084236 12.168831452366412 0 0 0
378 42 2 0 0.7970665389131995 14.340046174217282 10.197156761606433 0 0 0
611 68 2 0 4.90257796647157 14.484213300821363 11.50037852894349 0 0 0
605 68 1 0 4.046381414327656 15.567233633125836 12.633149020306195 0 0 0
606 68 1 0 5.179969790261529 13.11988561713373 10.3841803487351 0 0 0
620 69 2 0 9.268178964661637 13.591933914513515 11.442927268002133 0 0 0
614 69 1 0 8.552010300356558 15.06657568298633 12.197357004806742 0 0 0
396 44 2 0 11.190751812515204 14.249020496469585 9.851074470215355 0 0 0
623 70 1 0 13.751986227296271 15.391235223136748 12.479738352651552 0 0 0
624 70 1 0 15.712067962517496 13.131320807456127 10.484770386554379 0 0 0
629 70 2 0 14.708675045320367 14.122940887485498 11.587553172013202 0 0 0
450 50 2 0 -12.26520687487031 18.335610515081527 10.102151903737642 1 0 0
365 41 2 0 -8.646355433713325 16.12420029808937 9.872609464915854 0 0 0
633 71 1 0 -7.6745854582292425 17.180731020804032 11.116534407834303 0 0 0
592 66 2 0 -6.713177619518631 17.099010569715055 12.686897542420404 0 0 0
642 72 1 0 -3.1080666048129615 17.509352900125897 10.90360485398827 0 0 0
601 67 2 0 -2.228434510719263 15.998406222917536 10.697873441230586 0 0 0
596 67 1 0 -1.872652518673865 15.887858167790666 12.44971054600716 0 0 0
651 73 1 0 2.3542908398757296 17.495073991995916 10.186398113633501 0 0 0
656 73 2 0 1.7439471673759561 18.445687932509344 11.647481288468777 0 0 0
610 68 2 0 3.0908935413254515 16.681300168666766 11.679477117507101 0 0 0
660 74 1 0 7.209638896064449 17.434329275648707 10.02450351573154 0 0 0
619 69 2 0 7.792366207179185 16.482290782322856 11.489712341586767 0 0 0
665 74 2 0 7.164672282134136 18.616271825478066 11.452329104890174 0 0 0
401 45 2 0 11.180124770548197 17.11267173923742 10.803987781911543 0 0 0
669 75 1 0 12.963334149647114 17.314491065106132 10.909573979756072 0 0 0
628 70 2 0 14.517595083367238 16.40388018976565 11.216854260909884 0 0 0
637 71 2 0 -10.512621434864931 21.01010906420489 11.637185875481867 0 0 0
632 71 1 0 -9.467727715362049 19.840724820876545 12.52717699329255 0 0 0
638 71 2 0 -8.148523703448706 18.744034234609458 11.917083229560864 0 0 0
641 72 1 0 -4.790741294031042 20.096822183491184 12.82259378416166 0 0 0
646 72 2 0 -5.288570940278461 20.97269176272988 11.347493627417077 0 0 0
647 72 2 0 -3.7915472516871898 18.86501067427423 11.966155945363003 0 0 0
423 47 2 0 -2.4022551180504363 19.02804361455614 10.159589147760826 0 0 0
428 48 2 0 -0.781019400343288 21.158277580231918 10.082124577259464 0 0 0
655 73 2 0 1.843286197105832 20.841130082249492 12.016543876092442 0 0 0
650 73 1 0 0.8719846869145877 19.611329300824984 12.755321226887078 0 0 0
659 74 1 0 6.842704633301812 19.89903687258216 12.759043524405048 0 0 0
664 74 2 0 5.80055069512811 20.60768571529723 11.441524541603501 0 0 0
672 75 2 0 10.302505581994872 20.837014315544558 12.576516918897665 0 0 0
674 75 2 0 12.304985910860454 18.875578411863152 11.547800727415572 0 0 0
668 75 1 0 12.10074927743273 20.555459009908404 12.194137281690697 0 0 0
495 55 2 0 -2.417145990877268 1.2288250785937147 15.24839265864991 1 0 0
459 51 2 0 2.897900300449976 0.5608360452062651 15.280729509460924 0 0 0
465 52 2 0 4.494243701544235 1.4470207876910939 13.706030555298176 0 0 0
472 53 2 0 7.267377188538921 0.8828889448250887 13.572100383291945 0 0 0
474 53 2 0 9.332734097779008 0.6435800621882679 12.929921504479047 0 0 0
469 53 1 0 8.804897492539537 1.1786803780950503 14.582324079524168 0 0 0
470 53 1 0 10.993116831354488 1.107017454856381 13.244297897269576 0 0 0
481 54 2 0 12.354594729676075 0.7403341536651284 14.504889265299871 0 0 0
477 53 2 0 14.03444858107657 -0.40856115253257896 15.303782837657538 0 0 0
478 54 1 0 14.096498324928458 1.315208262477054 14.888099612543916 0 0 0
487 55 1 0 19.351283569339643 1.4017939183594326 14.379833793556296 0 0 0
486 54 2 0 18.825864954169347 0.6452159770662216 15.900932487584631 0 0 0
492 55 2 0 20.767285715858534 1.2353371670325428 13.182463630359756 0 0 0
451 51 1 0 -1.721876728858641 2.293972518801337 14.070792868376225 0 0 0
455 51 2 0 -1.1123577968817657 3.0615475351675574 15.559450225848044 0 0 0
456 51 2 0 -0.3553344259677522 2.398315997157701 12.965624115304069 0 0 0
463 52 2 0 1.707266335531922 3.0986603344893933 13.426086218320696 0 0 0
460 52 1 0 2.893582878827033 2.0008831710588053 14.20547284572382 0 0 0
464 52 2 0 3.7790293713549827 2.813197755452477 15.618365118610013 0 0 0
473 53 2 0 9.128255491862195 2.381682007133123 15.935573879406723 0 0 0
483 54 2 0 15.715879991060168 1.5388581028897281 14.19399381223531 0 0 0
482 54 2 0 14.547193336253693 2.9689181671847598 15.581313775600295 0 0 0
479 54 1 0 17.129829086431158 1.6318905233562284 13.042446674455492 0 0 0
490 55 2 0 17.77668022877893 2.1212833313520467 14.664719020257897 0 0 0
491 55 2 0 20.11070170498401 2.536631124426711 15.54983176928591 0 0 0
496 56 1 0 -4.609538717244773 6.52772818752445 14.390296210557095 0 0 0
501 56 2 0 -3.2108053623589905 6.7520500782345785 13.338146337143044 0 0 0
540 60 2 0 -5.047905028158439 5.353073540852912 15.647981007090456 1 0 0
510 57 2 0 1.9883638924431026 6.6043683165344635 13.323420085211586 0 0 0
504 56 2 0 -0.28628462667369026 5.221855576689065 15.399080160252256 0 0 0
505 57 1 0 0.32601376424777095 6.383583944889402 14.120677845950146 0 0 0
509 57 2 0 1.1001367299997624 7.166605970793874 15.600063055163703 0 0 0
517 58 2 0 5.13793958049147 5.901258768671487 13.8334299929018 0 0 0
513 57 2 0 5.990090913882924 4.584166588900925 15.846544568283038 0 0 0
514 58 1 0 6.740123772108346 5.6705099676354305 14.569033571135138 0 0 0
519 58 2 0 8.236474459062347 5.199061646533766 13.477386309062283 0 0 0
526 59 2 0 10.556862868969164 5.938175223923797 13.179132961687104 0 0 0
522 58 2 0 10.675184724320362 5.365249596953173 15.809536893587362 0 0 0
528 59 2 0 12.996975348110638 5.904685056387315 13.412396676691246 0 0 0
523 59 1 0 11.651498867057022 6.114611989947306 14.56278434734199 0 0 0
531 59 2 0 16.067172770346858 5.274449453128444 15.199599839236205 0 0 0
532 60 1 0 16.69799075647545 6.492011062821371 14.033409618428843 0 0 0
537 60 2 0 18.21865447256038 5.7229261067100685 14.341028464249897 0 0 0
499 56 2 0 20.289197235275275 6.181255331138101 13.725722695080757 -1 0 0
500 56 2 0 -3.5641694854251185 7.358925306491942 15.563412604135342 0 0 0
549 61 2 0 -2.048023913715951 9.442978336988922 15.352540525874515 0 0 0
558 62 2 0 2.6680770702797245 9.422077893136853 15.3575549235758 0 0 0
518 58 2 0 7.147179136848564 7.299163886750952 14.171321759559765 0 0 0
786 88 1 0 7.5608271455434295 7.667805661410137 15.859798409045647 0 0 0
567 63 2 0 8.636443412891762 8.81310665683788 14.828445444002819 0 0 0
573 64 2 0 10.278357444753741 9.459048039358649 13.359758573187055 0 0 0
527 59 2 0 11.8300769019561 7.374810335590164 15.764226143492818 0 0 0
585 65 2 0 18.578362741551814 9.859012374939748 15.396715790459139 0 0 0
536 60 2 0 17.274306021983804 7.554820420190367 15.428135584998257 0 0 0
541 61 1 0 -6.966597019453598 10.79708818625114 14.271185238738445 0 0 0
545 61 2 0 -6.206962296733963 11.946640580260048 15.377704085212619 0 0 0
546 61 2 0 -5.30910322741447 10.816582122714697 13.470713954793725 0 0 0
553 62 2 0 -3.0537766501900587 10.56634793058145 13.46898992588958 0 0 0
550 62 1 0 -1.389540745586464 10.641090424242075 14.209711993595926 0 0 0
554 62 2 0 -0.6742506811281244 11.666955469154216 15.493613431213026 0 0 0
555 62 2 0 0.18616489207756737 10.976384718085994 13.418724242145306 0 0 0
562 63 2 0 2.3503257501134005 10.390156106728393 13.13947607620482 0 0 0
564 63 2 0 5.011422988522449 10.61191965308688 13.18733271631763 0 0 0
559 63 1 0 3.629416229985983 10.520214791493542 14.295821220826541 0 0 0
563 63 2 0 4.646329393134791 11.719987572795684 15.172308710339598 0 0 0
571 64 2 0 8.160676002125497 10.5322089292042 13.321273989127015 0 0 0
568 64 1 0 9.50870072765162 10.452450594983894 14.558033376492423 0 0 0
569 64 1 0 11.619974213153194 10.597801106882924 13.075275411787157 0 0 0
580 65 2 0 12.994488764249446 11.22668352393402 14.08253938615338 0 0 0
582 65 2 0 15.282925910896905 10.720298408394475 13.919861661300052 0 0 0
577 65 1 0 14.245218372892287 11.02723041372545 15.372216205470364 0 0 0
581 65 2 0 14.464094350740273 12.66494127271871 14.8303631886851 0 0 0
544 61 2 0 18.067892025427696 10.477906183949269 13.305849221886136 -1 0 0
586 66 1 0 -9.812741514742685 15.419760609609883 14.386374756041052 0 0 0
591 66 2 0 -8.105012540805323 15.237345114465151 13.920686163605135 0 0 0
598 67 2 0 -5.2221512463685045 15.338493137466367 13.738471776142712 0 0 0
594 66 2 0 -5.0355267073826955 14.167129567982764 15.820288487264945 0 0 0
595 67 1 0 -4.157894095207494 15.606516630977834 15.112499920270166 0 0 0
607 68 2 0 -0.5517531251703502 15.83435624866535 13.650749160248926 0 0 0
603 67 2 0 0.1977623350118205 14.684608655264393 15.485175432743295 0 0 0
604 68 1 0 1.0618238911258806 15.796287675026106 14.429710228626332 0 0 0
609 68 2 0 2.748347730290207 15.835359860491868 13.780567281566688 0 0 0
616 69 2 0 5.255174945138809 15.198008687202764 13.871697962139555 0 0 0
612 68 2 0 5.547217574102619 13.954847044696512 15.808803285596754 0 0 0
618 69 2 0 7.61127931202005 15.469307076378906 13.631691924313591 0 0 0
613 69 1 0 6.57064968266015 15.291990151010973 15.099956171747513 0 0 0
625 70 2 0 9.779380313779013 14.549631815237099 13.391332414313132 0 0 0
622 70 1 0 10.988897246393925 14.810566451511383 14.673285744653102 0 0 0
621 69 2 0 10.30757890220499 13.724556507426168 15.914068887780603 0 0 0
627 70 2 0 12.186415044881626 15.103194725280245 13.464526392447546 0 0 0
630 70 2 0 15.513568617671764 14.551661383846534 15.37379987516296 0 0 0
589 66 2 0 15.309655328928384 15.790995192352154 13.331379142861092 -1 0 0
590 66 2 0 -8.964491448017188 16.151005251460155 15.698384250189582 0 0 0
600 67 2 0 -2.82058052562542 15.986405001225672 14.031909261021505 0 0 0
608 68 2 0 1.978264418074569 16.441728630258844 15.800145112627986 0 0 0
617 69 2 0 7.739063474019726 16.609605685643388 15.486484876574567 0 0 0
626 70 2 0 11.88359613592229 15.946636154994943 15.653980652165155 0 0 0
631 71 1 0 -12.192431937199444 19.705772514810462 14.765370919867474 0 0 0
634 71 2 0 -13.282975702420236 19.80134698361124 13.419366578487075 0 0 0
636 71 2 0 -10.786028154145994 19.972557674425673 13.706262238677072 0 0 0
643 72 2 0 -8.431496921295793 19.83003814089721 13.983977217875003 0 0 0
640 72 1 0 -7.305392665420031 19.85404935073462 15.38702435744703 0 0 0
645 72 2 0 -5.988339168479465 20.202887448110317 14.195641125934328 0 0 0
652 73 2 0 -3.5905258283911454 20.14493345891703 14.090961975246342 0 0 0
649 73 1 0 -1.9416263268932294 19.964658570237866 14.955904966992085 0 0 0
653 73 2 0 -0.8807458280300817 21.353732199775948 15.520217882936285 0 0 0
654 73 2 0 -0.49470704870569926 19.4608071595246 14.01444616843701 0 0 0
661 74 2 0 2.393269732436657 19.449763772575444 13.708778394723497 0 0 0
657 73 2 0 2.894950445776643 18.7739173022089 15.85755653413934 0 0 0
658 74 1 0 3.881675646502991 19.711338439549515 14.711689958788833 0 0 0
663 74 2 0 5.35600175466092 20.18117924849765 13.793118268199278 0 0 0
670 75 2 0 7.4375116624160285 20.51474365418232 14.333485678823953 0 0 0
666 74 2 0 9.063662443865782 18.91766304587589 15.187397216350364 0 0 0
667 75 1 0 9.081923646031164 20.224623825635092 13.896266734906655 0 0 0
671 75 2 0 9.530123169142948 21.416410795279802 15.21707785998091 0 0 0
681 76 2 0 -0.6349250502690402 0.7942781101905969 18.86474099956009 0 0 0
678 76 1 0 2.168347308358112 -0.5600081812845583 16.585427055977732 0 0 0
683 76 2 0 0.7575545800572496 -0.6756603892279276 17.680341112955475 0 0 0
677 76 1 0 1.0415852491658022 1.0409585886615158 18.133593633725262 0 0 0
692 77 2 0 5.580641592185633 0.5168046415955871 17.556794651185513 0 0 0
687 77 1 0 7.1180940581795 -0.3238025491001386 17.23519019683242 0 0 0
686 77 1 0 6.369681468679779 1.4326731902188374 18.80883700042861 0 0 0
468 52 2 0 8.474502357740331 0.2591205083563024 16.18069688976795 0 0 0
696 78 1 0 12.591812941064232 0.0942238434064786 16.218790367449294 0 0 0
701 78 2 0 12.120909463366269 1.019133459684674 17.775779531056564 0 0 0
880 98 2 0 13.372751863743044 -0.8684631081572423 17.552178364484497 0 1 0
705 79 1 0 18.135579565204893 -0.7328564062896562 16.855685212299143 0 0 0
710 79 2 0 17.644636689090348 0.5959134621984492 17.90996460657547 0 0 0
719 80 2 0 21.86192063231821 -0.4391527207485165 17.330152850354466 0 0 0
713 80 1 0 22.19887075887874 1.0769286862022662 18.26346428819825 0 0 0
714 80 1 0 23.23612415067695 -0.10422981441751356 16.21220766461134 0 0 0
723 81 1 0 -0.49153298759304453 4.151135308189359 16.89585624817201 0 0 0
728 81 2 0 -0.3246187116575703 4.262098776470628 18.688563717188273 0 0 0
682 76 2 0 0.1222888535336284 2.511924314391356 17.411873104452994 0 0 0
732 82 1 0 4.608641211100243 3.8094258392860265 16.86526077595765 0 0 0
691 77 2 0 5.830820498432851 2.9289600233066313 17.894221937601998 0 0 0
700 78 2 0 10.372461104660728 2.79735203224683 17.90378726681515 0 0 0
741 83 1 0 9.799810477949041 3.9214260618062475 16.56541662037469 0 0 0
709 79 2 0 15.73706950366501 3.139198283954231 17.66300632903245 0 0 0
750 84 1 0 15.26660487736857 4.290950770548513 16.40591212255604 0 0 0
704 79 1 0 16.769508145036895 1.961274108154941 18.629677154977763 0 0 0
718 80 2 0 21.35998221303531 2.602588580376387 17.499795243372255 0 0 0
759 85 1 0 20.840506631537735 3.8951226144148414 16.41848615475476 0 0 0
722 81 1 0 -1.3330813688062904 5.699320100306435 18.682221497935537 0 0 0
727 81 2 0 -2.059035373702956 7.121529478952331 17.852110789290343 0 0 0
736 82 2 0 2.4851358963561543 6.788581735494331 17.33964978498284 0 0 0
737 82 2 0 2.9772216526957136 4.565613830277066 16.94212482928632 0 0 0
731 82 1 0 3.5454352061096426 5.620095773127996 18.19794494357714 0 0 0
745 83 2 0 8.057136184294931 7.015634202328391 17.533726445016683 0 0 0
746 83 2 0 9.401398173110175 5.227674481820466 17.735647372013844 0 0 0
755 84 2 0 15.013574798648902 5.68907042559241 17.424088557933793 0 0 0
749 84 1 0 14.048142446203059 6.86792278881166 18.473983918573772 0 0 0
758 85 1 0 19.487698387967022 6.2565229263691196 18.718957749580582 0 0 0
764 85 2 0 20.289531900448452 5.111899785154911 17.606053436755055 0 0 0
773 86 2 0 -4.156060658770389 9.362048358557253 16.57933975858365 0 0 0
767 86 1 0 -3.931692077714036 10.102920655264244 18.19016830191638 0 0 0
768 86 1 0 -2.7120779497087737 8.406040685441491 16.7432339282715 0 0 0
777 87 1 0 1.9446742150877374 8.381932086027081 16.573177997601583 0 0 0
782 87 2 0 1.6927045666022833 9.93276952243502 17.34672626004504 0 0 0
791 88 2 0 6.799560641926766 8.878868690656763 17.01583329866932 0 0 0
795 89 1 0 12.497262803031692 8.482444125770295 17.09944344354134 0 0 0
800 89 2 0 11.461075221916847 9.323513172099796 18.347470460327052 0 0 0
576 64 2 0 13.624174293598347 9.874063015142935 16.681758289468526 0 0 0
754 84 2 0 14.05245684334736 7.62796973677472 16.849185300935943 0 0 0
763 85 2 0 18.643870661399788 7.415339233358196 17.61780448935489 0 0 0
804 90 1 0 17.96874571057152 8.703728666006775 16.617050853758542 0 0 0
809 90 2 0 17.461340683028588 10.108612308455205 17.487062210906323 0 0 0
813 91 1 0 -5.616146141854651 12.802628117166995 16.793231620367187 0 0 0
772 86 2 0 -5.103604952016839 11.121737343980504 17.308818080776888 0 0 0
781 87 2 0 0.544352596721795 11.899178427857606 17.40937541375834 0 0 0
776 87 1 0 1.5835984981071705 11.1566676281295 18.717308715308114 0 0 0
831 93 1 0 5.384811907861489 12.360158357735212 16.711894917592133 0 0 0
790 88 2 0 6.444420379992231 10.991921103997845 16.345119207729233 0 0 0
785 88 1 0 6.473649932180807 10.431451150169039 18.139210437509995 0 0 0
572 64 2 0 9.954412151361492 11.543237023693566 16.02674609619831 0 0 0
840 94 1 0 10.611823485975153 12.58243039108413 17.34868243649356 0 0 0
799 89 2 0 11.894896651312367 12.552178236047588 18.600245746835547 0 0 0
808 90 2 0 15.850982801932167 12.564170852208859 18.02582203878228 0 0 0
803 90 1 0 16.760842474447507 11.189738164254637 18.79444773191217 0 0 0
812 91 1 0 -6.906474820607103 15.588000391751043 18.50003303292513 0 0 0
818 91 2 0 -6.161950803877042 14.040004572512414 17.928291458771554 0 0 0
827 92 2 0 -0.6060997610738443 14.48265126398025 17.5478234714285 0 0 0
821 92 1 0 -1.3782074489465486 15.650862905004088 18.610799536384896 0 0 0
822 92 1 0 -0.26766785106222324 13.166788532691355 16.379370785041765 0 0 0
836 93 2 0 4.538827781835267 13.37927971915595 17.935871112661992 0 0 0
830 93 1 0 3.7810142256843635 14.785362183807697 18.793048580481795 0 0 0
843 94 2 0 7.631645020573643 15.011098080852603 18.636327899675223 0 0 0
845 94 2 0 10.13763636613161 14.192323653769789 18.228434654999525 0 0 0
848 95 1 0 13.75782814089243 15.66464050196077 18.59253768729539 0 0 0
849 95 1 0 14.995831467891252 13.12126675404035 16.480400656923514 0 0 0
854 95 2 0 14.745321140192539 14.367447008747916 17.74893836769556 0 0 0
863 96 2 0 -8.947367845624125 18.53882550608955 18.209412893193026 0 0 0
639 71 2 0 -8.048595216796775 18.30466426843234 16.07509283251852 0 0 0
858 96 1 0 -8.476976629879385 16.988024017025232 17.307950944278332 0 0 0
817 91 2 0 -6.940741045244179 17.303821257806312 18.220303738209964 0 0 0
599 67 2 0 -3.5484475351713836 17.028595901843516 16.019526280706614 0 0 0
867 97 1 0 -2.542893505997724 18.37413252455911 16.73488194552739 0 0 0
826 92 2 0 -1.6747587122799954 16.93053244367202 17.476262191924747 0 0 0
876 98 1 0 2.464390111220297 17.556357659809166 17.10801793878632 0 0 0
835 93 2 0 3.007453894984554 15.99596870542794 17.800989479190882 0 0 0
890 99 2 0 7.811787785418801 18.70514682729428 17.94648086322357 0 0 0
844 94 2 0 8.943651628332352 16.709319478026167 17.712118987375526 0 0 0
885 99 1 0 8.449484916453121 17.887901253822157 16.51115563203124 0 0 0
894 100 1 0 12.886857136863597 17.124897935556405 16.684050892841533 0 0 0
899 100 2 0 12.359326296702454 18.6255852209746 17.490710997191037 0 0 0
675 75 2 0 13.889445106662373 18.52111076270873 15.953311914856636 0 0 0
853 95 2 0 14.418202179020179 17.057434812913733 17.639298723673534 0 0 0
635 71 2 0 -11.543439961726596 20.75677451692288 16.012608077151867 0 0 0
862 96 2 0 -9.916774602381514 20.876438536680624 17.659770477730383 0 0 0
644 72 2 0 -6.5917382343594095 21.225430913553147 16.355629112415528 0 0 0
857 96 1 0 -8.773842944063508 20.243569991353127 18.95149868462878 0 0 0
872 97 2 0 -4.255522139011057 18.864969145943704 17.287414256405874 0 0 0
871 97 2 0 -4.484607015933294 21.158713006753985 17.75875850543995 0 0 0
866 97 1 0 -3.517228172400255 19.861550709631928 18.509466683286355 0 0 0
648 72 2 0 -0.9756158294960725 19.058662373326264 16.144774354442802 0 0 0
881 98 2 0 1.9198197088486522 18.95714427306141 18.062825114261145 0 0 0
875 98 1 0 1.4252254288018236 20.603448243171158 18.529939885134084 0 0 0
662 74 2 0 4.434347906510086 20.641162915432076 16.142885849801758 0 0 0
889 99 2 0 6.036593934884755 20.561287666113834 17.71272985956834 0 0 0
898 100 2 0 11.176055688713761 21.106454906710418 16.923065223973055 0 0 0
893 100 1 0 11.586624471051937 19.986278856174835 18.238455475928056 0 0 0
676 76 1 0 -1.5408248496746473 1.3857860594331814 20.38753354362983 0 0 0
720 80 2 0 -2.232173396440711 0.40130455881960225 21.614297932897493 1 0 0
684 76 2 0 2.187366642990723 1.0136772241634726 21.561921460948135 0 0 0
690 77 2 0 4.7813559279107904 1.4531700749209215 19.529395674706564 0 0 0
697 78 2 0 7.213529103620042 1.0953963252920804 20.519249993418235 0 0 0
693 77 2 0 8.80577144508075 -0.14580542637290472 21.36104940855138 0 0 0
702 78 2 0 13.48583818943776 0.6346940559601049 21.9260762120617 0 0 0
711 79 2 0 18.942578456417394 0.33972384718551796 21.54384179789119 0 0 0
679 76 2 0 23.531108043237218 0.9726109761432968 19.50330528790444 -1 0 0
680 76 2 0 -1.0777796600480154 2.452319257022216 21.72526924799088 0 0 0
688 77 2 0 2.4377437540335603 1.7266943943144448 19.231110521329498 0 0 0
685 77 1 0 3.4967180929187167 2.000415690934512 20.721674991903356 0 0 0
694 78 1 0 8.846121663475166 1.696319689238944 21.31573483087071 0 0 0
699 78 2 0 10.379268445439596 2.2616156622430776 20.374963495505312 0 0 0
695 78 1 0 11.49067986253899 2.0134264712405963 19.051258075756294 0 0 0
706 79 2 0 13.064480346618685 1.8494213721480723 19.84230480849238 0 0 0
703 79 1 0 14.344147153964945 2.011672077528715 21.154140424915035 0 0 0
708 79 2 0 15.247261869828472 2.198356115015921 19.577063651638127 0 0 0
715 80 2 0 18.1659634178503 1.6831933190398733 19.71486306047457 0 0 0
717 80 2 0 21.273320236098044 1.7219423035688823 19.652419283879134 0 0 0
712 80 1 0 19.7006699254864 1.6788663674948379 20.637153887057785 0 0 0
716 80 2 0 20.254661120940384 3.0659346951876634 21.551577992768145 0 0 0
724 81 2 0 -5.402779160031563 6.1330378377322585 19.427320094760205 0 0 0
721 81 1 0 -4.280923599594179 5.85004814872174 20.840751702378775 0 0 0
725 81 2 0 -3.1101601872886446 6.9654545329153965 21.703094206234084 0 0 0
726 81 2 0 -3.045849715707674 6.026488149584946 19.414410043428937 0 0 0
733 82 2 0 0.015987728983169802 5.987953187799805 19.906800188307216 0 0 0
730 82 1 0 1.4252849660678124 6.213097440523331 20.98925705984807 0 0 0
735 82 2 0 2.5233111828617227 6.355007984846404 19.60965631169831 0 0 0
742 83 2 0 4.786699598082704 6.17096657703346 19.439378195748567 0 0 0
739 83 1 0 6.314396145640078 6.3604989760208515 20.462684807086795 0 0 0
738 82 2 0 5.834205358134851 4.699099929198755 20.930113254850674 0 0 0
744 83 2 0 7.91525594217795 5.785467179632496 20.81226696660388 0 0 0
740 83 1 0 8.48359796001421 6.186979912307466 19.08693553079444 0 0 0
751 84 2 0 10.009950708761505 6.214326432484982 20.201194145943006 0 0 0
748 84 1 0 11.57777269730847 6.664082604290792 20.957731231302773 0 0 0
753 84 2 0 13.147991358385696 6.795977021914018 20.119111740127046 0 0 0
760 85 2 0 15.334889084662786 6.331460884369163 19.618997435667076 0 0 0
756 84 2 0 15.846665803546317 5.185135859318389 21.710487191779883 0 0 0
757 85 1 0 16.60158747751906 6.5040687862849875 20.831835667344137 0 0 0
762 85 2 0 17.81420300898087 6.550906663892596 19.511026008915778 0 0 0
810 90 2 0 -5.918488439065545 9.18145363417071 21.41808018794554 1 0 0
771 86 2 0 -5.109212348576955 10.091289365237483 19.592665298501963 0 0 0
774 86 2 0 -2.111294488856502 10.00084599024004 21.689050256497957 0 0 0
734 82 2 0 2.457221478158867 7.53192149196458 21.685179926698126 0 0 0
783 87 2 0 2.9618365269305054 9.936265373677825 21.67221497771782 0 0 0
743 83 2 0 6.807894184134788 7.681262810056992 21.65750126386989 0 0 0
798 89 2 0 9.759269945139788 10.019160758654127 19.57496723524794 0 0 0
761 85 2 0 17.556693427036777 7.901111791606141 21.43159556839671 0 0 0
766 86 1 0 -6.6842146392706985 10.39012384092755 20.38133908943609 0 0 0
769 86 2 0 -8.135730132496224 10.848235736215967 19.352147085511135 0 0 0
770 86 2 0 -5.641401529112952 11.559698133664208 21.32353690584926 0 0 0
778 87 2 0 -2.8077124712791264 10.453849489505654 19.61753869887525 0 0 0
775 87 1 0 -1.444117668018223 11.124824530189622 20.495382409768872 0 0 0
779 87 2 0 -1.1546704352258617 12.313180517291846 21.76600864798955 0 0 0
780 87 2 0 0.07300744597101994 11.591988826060119 19.73996206565016 0 0 0
787 88 2 0 2.2032170406121656 11.653539591955045 20.337093309171784 0 0 0
784 88 1 0 3.6005925781001515 10.715559376918119 20.141288950673754 0 0 0
788 88 2 0 4.400342028889632 11.912234459419006 21.174752471068878 0 0 0
789 88 2 0 5.341123792312176 10.434766260658861 19.645709904885727 0 0 0
796 89 2 0 7.642733784097912 11.035507056347347 19.56433738935055 0 0 0
792 88 2 0 8.529780676086677 10.250641498835314 21.807433029116723 0 0 0
793 89 1 0 9.17322394839404 11.340012160079102 20.56781793249317 0 0 0
797 89 2 0 9.371475421974804 12.416311717545446 21.983970661162694 0 0 0
794 89 1 0 11.246429279291133 10.989039198246969 19.293809166877196 0 0 0
805 90 2 0 12.858156513083362 11.387850400878014 20.239607491542657 0 0 0
802 90 1 0 14.324304509558315 11.438296725742534 21.30975292057755 0 0 0
807 90 2 0 15.206105523220172 11.304955989776804 19.65717111737301 0 0 0
855 95 2 0 -10.265499359905599 14.64663158259115 21.589543832319343 1 0 0
819 91 2 0 -4.927215118338967 14.661523280008689 21.506759581707726 0 0 0
823 92 2 0 -5.2576160102600324 15.675947219774129 19.343546948865317 0 0 0
834 93 2 0 2.258464093986129 15.156333384001849 19.667200388021357 0 0 0
832 93 2 0 0.0034473156980929787 15.2196377500954 19.61679837178084 0 0 0
829 93 1 0 1.1245416699007067 15.040663372100203 21.081025260317134 0 0 0
841 94 2 0 5.558762457139222 14.95159624804369 19.220028232893966 0 0 0
838 94 1 0 6.948105527074745 15.386735933329211 20.277399435606334 0 0 0
837 93 2 0 6.003413733034504 14.526786562185872 21.563803335259557 0 0 0
839 94 1 0 9.240807070131337 15.513109013540609 19.124496214091202 0 0 0
850 95 2 0 10.484426828680562 15.357196184987098 20.4237043033664 0 0 0
852 95 2 0 12.629890897162037 15.657768094630496 20.098834790301204 0 0 0
814 91 2 0 15.147972633478746 15.679242153206294 19.70662567852034 -1 0 0
811 91 1 0 -9.758880552440324 15.917159084055315 20.455381230458393 0 0 0
816 91 2 0 -8.607840706447792 16.095434026000397 19.017802519445105 0 0 0
815 91 2 0 -8.628821532440767 16.851417456782187 21.447921662529644 0 0 0
864 96 2 0 -7.283254233668164 18.58037622980578 21.568758686540598 0 0 0
820 92 1 0 -4.1057363605778505 16.142245749996476 20.756262555422524 0 0 0
825 92 2 0 -2.8952577161863116 16.19884036573208 19.383196811741364 0 0 0
833 93 2 0 2.1002201353026986 16.280806343940405 21.95613024122744 0 0 0
842 94 2 0 7.160053730642165 16.399842324221574 21.795373334436576 0 0 0
847 95 1 0 11.646499399053841 16.1287585726239 21.5864927588024 0 0 0
856 96 1 0 -12.097968132938805 19.633649616446476 20.27726353114616 0 0 0
860 96 2 0 -11.515850863255997 20.88179058395844 21.457587508087144 0 0 0
861 96 2 0 -10.360918400369044 19.777525616886592 19.74318508564476 0 0 0
865 97 1 0 -6.666271606172614 19.90622993924044 20.462046899580287 0 0 0
868 97 2 0 -8.14504204029728 20.870473860198544 20.53560180405328 0 0 0
869 97 2 0 -5.858392774580983 21.422091390253478 20.983716893472412 0 0 0
870 97 2 0 -5.0147739340560005 19.831749962893866 19.52091647815608 0 0 0
877 98 2 0 -2.097727602232778 20.18428252172631 19.61738310886946 0 0 0
874 98 1 0 -1.060193635934446 20.443398780901035 21.04299648474627 0 0 0
873 97 2 0 -2.06431170311192 19.057024155714664 21.65399706728762 0 0 0
879 98 2 0 0.032821494547700336 20.706175432419464 19.564699846723578 0 0 0
883 99 1 0 3.9535458052011254 20.33849122536885 21.01183415264537 0 0 0
886 99 2 0 2.905837032722067 20.41409998924111 19.468962058738015 0 0 0
888 99 2 0 5.1094089850091 19.814112742656256 19.709729101305697 0 0 0
882 98 2 0 2.817629351998489 19.21481549938037 21.979809080507394 0 0 0
884 99 1 0 6.7338244357636 19.634263183770024 19.02330704046598 0 0 0
895 100 2 0 8.396710816676542 19.634277644956036 19.83196822174844 0 0 0
892 100 1 0 9.49042231772064 20.372046182636574 21.10640751223704 0 0 0
897 100 2 0 10.577866118684332 20.054311900405608 19.69785094777732 0 0 0
900 100 2 0 13.664976071403725 18.97180513607121 21.754560712709498 0 0 0
859 96 2 0 12.765436344216571 19.60629065206448 19.537312582011467 -1 0 0
903 101 1 0 1.7345186268296287 -0.4952091653505759 22.3873098718256 0 0 0
908 101 2 0 0.9693470789039833 0.38286405293463943 23.702858657502645 0 0 0
912 102 1 0 7.187970774670317 0.0622473822747549 22.080048921229654 0 0 0
917 102 2 0 6.3807704555468785 0.7518822494508122 23.661903122373495 0 0 0
1096 122 2 0 7.73351703307528 -1.1063750880836984 23.399159029703974 0 1 0
921 103 1 0 12.848892366110416 -0.8320079473108638 22.819440797719295 0 0 0
926 103 2 0 12.032739307746699 0.14705240224785898 24.033698071094918 0 0 0
920 103 1 0 11.348955493517947 1.5069458992308125 24.959363283361483 0 0 0
930 104 1 0 18.09535257342261 -0.8886803955735034 22.512503113394686 0 0 0
935 104 2 0 17.650781743416324 0.5712884876766668 23.399913055883992 0 0 0
929 104 1 0 17.390898849114627 1.501133018099432 24.98822481504422 0 0 0
939 105 1 0 23.45910824589103 -0.8521127975456703 22.633489797384975 0 0 0
944 105 2 0 22.766118500739104 0.6446418457304925 23.36485172490284 0 0 0
948 106 1 0 -0.3030298637183044 3.6809807390497102 22.92010769694764 0 0 0
907 101 2 0 0.8521100802886807 3.69464612339483 24.27585802487212 0 0 0
902 101 1 0 0.6453673430559355 1.9658034694697109 24.725780075398823 0 0 0
689 77 2 0 3.477655486487124 2.612831183076748 22.39316001707477 0 0 0
957 107 1 0 4.773321385275255 3.7271828412947094 22.18273526381264 0 0 0
916 102 2 0 5.281094593634474 2.709129280887881 23.661951354487577 0 0 0
911 102 1 0 5.552147383480627 1.5420109130997006 25.045415603669582 0 0 0
698 78 2 0 9.205808656840913 3.073850857449661 22.486648727275835 0 0 0
925 103 2 0 10.750625015487953 2.906788344871803 24.031180122745873 0 0 0
707 79 2 0 14.585715895128525 2.2514876163196496 22.883719224332978 0 0 0
975 109 1 0 15.607530888967668 3.6610680549101167 22.725731464794833 0 0 0
934 104 2 0 16.686988604694783 2.712918762499614 23.853179585139962 0 0 0
940 105 2 0 19.020494368673745 2.0686831727331643 24.577811877477764 0 0 0
943 105 2 0 21.98674299252967 3.0972211777426137 23.138179621515512 0 0 0
938 105 1 0 22.54598326866624 2.0096967959559375 24.457814274642864 0 0 0
765 85 2 0 -3.951763937030224 5.144010530879379 22.45423498065982 1 0 0
953 106 2 0 -0.7655258553063484 5.170497837621688 23.795049441162398 0 0 0
947 106 1 0 -1.364954476691168 6.2648168102181225 25.090479949174572 0 0 0
729 81 2 0 0.7186210572215379 4.978130670342752 22.12402268015976 0 0 0
958 107 2 0 0.1609716380264259 7.04617018922915 24.98253658711169 0 0 0
962 107 2 0 4.11693751812463 4.684155858615754 23.583471188499637 0 0 0
956 107 1 0 3.8182088848057623 5.963109576349786 24.904935363844025 0 0 0
966 108 1 0 10.149300700871459 4.412850648176906 23.244148991365726 0 0 0
971 108 2 0 9.710388186197186 5.925303067191957 24.146714493139633 0 0 0
747 83 2 0 11.046478375464273 5.714672432352328 22.36366390875189 0 0 0
980 109 2 0 15.353900638662006 5.078993192265081 23.843147460707243 0 0 0
974 109 1 0 14.674022951457902 6.218871919746177 24.973000300717835 0 0 0
989 110 2 0 19.200078678381324 5.03701146535956 22.69261258089451 0 0 0
983 110 1 0 19.45828972969929 5.8427724745517295 24.233400137116597 0 0 0
984 110 1 0 20.90971372230384 4.496008036041326 22.540525143984645 0 0 0
998 111 2 0 -3.2527853990034514 9.689223903798887 23.69898721017843 0 0 0
993 111 1 0 -2.576686083176876 8.476436617271576 22.55338241899541 0 0 0
952 106 2 0 -1.7636638643007319 7.412769725691904 23.70470865166819 0 0 0
961 107 2 0 3.513460015643874 7.328408318296201 23.748940228022015 0 0 0
1002 112 1 0 2.7071069569151884 8.749491762774193 22.98090332538613 0 0 0
970 108 2 0 7.958258958092873 7.666156173748593 23.870924343152723 0 0 0
1011 113 1 0 7.694302430595249 8.90040930863263 22.57817409669439 0 0 0
1016 113 2 0 7.1295140174482885 10.113953644969166 23.71347742359822 0 0 0
752 84 2 0 12.565888849338375 7.495178097021974 22.191988244060042 0 0 0
979 109 2 0 13.601089879811585 7.3435006799255405 24.116994937229258 0 0 0
1020 114 1 0 12.844094268496004 8.82607398855106 23.405316954926697 0 0 0
988 110 2 0 19.069554629790126 7.351630655466078 23.268840377914962 0 0 0
1029 115 1 0 19.01314106277092 8.726029358785471 22.0908135283441 0 0 0
1034 115 2 0 17.784451278964852 9.535641788454557 23.167670687205252 0 0 0
997 111 2 0 -4.6785002277619405 11.825534647095747 23.503010995335075 0 0 0
992 111 1 0 -3.954825432433039 10.844310009936049 24.789359243312283 0 0 0
1007 112 2 0 1.8042682731186308 10.14429632425002 23.674242997543374 0 0 0
1005 112 2 0 -0.16076522514352432 10.567961097491418 24.774398398466914 0 0 0
1006 112 2 0 0.711206771595108 12.237339435572142 23.46035627364875 0 0 0
1001 112 1 0 1.3478022065101234 11.363571459469616 24.898722555259795 0 0 0
1015 113 2 0 5.446469620019289 11.866227445421192 23.460039458105307 0 0 0
1010 113 1 0 6.042279087840373 10.988237629586942 24.871136108298323 0 0 0
801 89 2 0 13.375956720797369 10.129897159082322 22.273331863842394 0 0 0
1019 114 1 0 11.082765651168373 11.533518014811103 24.861535514252495 0 0 0
1025 114 2 0 11.864183563527032 10.214175239136633 23.894461698388433 0 0 0
806 90 2 0 13.629370155548989 12.729722866164956 22.338449780724034 0 0 0
1024 114 2 0 11.957979827806284 12.838195898637348 24.05812776905534 0 0 0
1033 115 2 0 15.306600704190744 11.567464095099988 22.91582242458174 0 0 0
1028 115 1 0 16.517130284331003 10.515933442801783 24.00018727543668 0 0 0
1037 116 1 0 -6.638169504758147 15.178467534155041 24.558801087524273 0 0 0
1043 116 2 0 -5.814105926239395 13.886531701254913 23.58132049211717 0 0 0
1038 116 1 0 -5.083816922877075 13.000839049410878 22.24057327325807 0 0 0
1052 117 2 0 -1.8015554107789395 14.459152896569519 22.941777042856536 0 0 0
1046 117 1 0 -1.4728268716289104 15.088455850719834 24.556043750570353 0 0 0
1047 117 1 0 -0.2294223505266264 13.661457628003532 22.71193279884067 0 0 0
828 92 2 0 1.4670710013774335 14.291505156189125 22.63804598443263 0 0 0
1061 118 2 0 4.947820312927583 14.266274648528894 23.585751717780397 0 0 0
1055 118 1 0 4.423875700381048 15.537659763653474 24.844959541803703 0 0 0
1056 118 1 0 5.088671062173319 13.159308122507353 22.240687167858944 0 0 0
1070 119 2 0 8.669986663608386 13.92297703932786 23.79013451193775 0 0 0
846 94 2 0 10.611352652595752 15.240880946746456 22.99693841061565 0 0 0
1065 119 1 0 10.354149590114476 13.401720925029927 23.318187729131644 0 0 0
1064 119 1 0 9.506591351132588 15.276302974431756 24.61274031077106 0 0 0
1074 120 1 0 15.272487000206338 13.41425534776931 22.483251487218226 0 0 0
1079 120 2 0 15.592009103202644 14.837969264506564 23.672169015031308 0 0 0
1088 121 2 0 -8.925076197575997 18.15076217840928 24.58621332928508 0 0 0
1083 121 1 0 -8.281504599367842 17.908662865008203 22.929826290869606 0 0 0
1042 116 2 0 -7.766782166870779 16.338442019339446 23.794611698789083 0 0 0
824 92 2 0 -4.4125591238743525 16.83366895241508 22.416134603685357 0 0 0
1092 122 1 0 -2.935662931047169 17.764475908426633 22.554903419354368 0 0 0
1051 117 2 0 -2.3885333014712025 16.475179984822645 23.79257315636388 0 0 0
1101 123 1 0 2.428956491502081 17.73962433752262 22.915644728862965 0 0 0
1060 118 2 0 3.640009997855656 17.010424746290184 24.09103219651694 0 0 0
1110 124 1 0 7.770018557816563 17.746177318533498 22.80023259572411 0 0 0
1069 119 2 0 8.379422934772007 16.295024716051422 23.644946494148464 0 0 0
851 95 2 0 11.472038521433557 17.67492075782674 22.527685158741477 0 0 0
1119 125 1 0 13.240276307338393 17.620314079020154 22.890963573134478 0 0 0
1078 120 2 0 14.318080232381915 16.603786942289595 23.954342460729542 0 0 0
1087 121 2 0 -10.198291283452274 21.08352443963617 23.378731890286716 0 0 0
1082 121 1 0 -9.229497443500225 19.83629195685711 24.244367699144952 0 0 0
1097 122 2 0 -4.073718291210355 18.96830239747704 23.324914919913503 0 0 0
1091 122 1 0 -4.55602510369406 20.239544983774103 24.565161945661785 0 0 0
878 98 2 0 -1.2097206542977654 20.824248021706616 22.78071799564531 0 0 0
1106 123 2 0 1.5209616712201837 18.763155542733422 24.035794542460103 0 0 0
1105 123 2 0 0.6142828780093197 20.801070854265802 24.120777994411533 0 0 0
887 99 2 0 3.8185978235743123 21.078972874889466 22.66458676589594 0 0 0
1115 124 2 0 7.3119130193331525 18.765102265015237 24.18138270127222 0 0 0
1114 124 2 0 5.710668380960465 20.9895826923982 24.04104948640269 0 0 0
896 100 2 0 9.012379639530634 21.359942370058207 22.546406321458164 0 0 0
891 99 2 0 8.361965404619186 19.323421288326884 22.117364585963657 0 0 0
1123 125 2 0 11.14060268468429 20.906902786488928 24.136422130187768 0 0 0
1124 125 2 0 12.855085950950103 19.09548623682253 23.855443211133533 0 0 0
945 105 2 0 -1.8906124641711948 1.0438771488519278 27.962886426437308 1 0 0
906 101 2 0 -0.645214737070408 0.7997557764457817 25.154399943963398 0 0 0
1085 121 2 0 1.8209883831861422 -1.1480509127512049 26.74613031889946 0 1 0
909 101 2 0 2.821297677190314 0.6578647467032628 27.715664592581604 0 0 0
915 102 2 0 4.858095928226175 0.69153109595341 26.49259703434324 0 0 0
918 102 2 0 7.986192636178783 0.3714305219311069 27.79325281025183 0 0 0
922 103 2 0 7.064381595834355 1.4338879073779962 26.032513281304567 0 0 0
927 103 2 0 13.242038865075179 -0.19392464268719434 27.38694233174394 0 0 0
931 104 2 0 12.889471808647752 1.2498125136273615 25.85068266912902 0 0 0
928 104 1 0 14.321635030995031 1.23409864624925 26.869437089115472 0 0 0
933 104 2 0 15.980746153642977 1.410290329050611 26.12179784261899 0 0 0
936 104 2 0 19.249566823638247 0.9694973269261302 27.853290708461238 0 0 0
942 105 2 0 21.110145986903333 1.4933047206139753 25.40058469657449 0 0 0
904 101 2 0 -2.7577453423631555 1.5624850193815947 25.69354277009112 0 0 0
901 101 1 0 -1.1426866150125714 1.8443401830027346 26.500830580239104 0 0 0
905 101 2 0 -0.6696761435094172 3.076723734000262 27.783644626656596 0 0 0
913 102 2 0 2.2144542316180127 2.420650057411905 25.594870562338713 0 0 0
914 102 2 0 4.33490576414308 2.591266440837296 28.12385261477707 0 0 0
910 102 1 0 3.57779371090579 1.8844445164827737 26.599566497372393 0 0 0
919 103 1 0 8.51387540941786 1.8254356933395437 26.990400092082332 0 0 0
924 103 2 0 9.74131009100196 1.917333149624017 25.712289157339463 0 0 0
923 103 2 0 9.370483950556839 3.117957658769079 27.85195371449481 0 0 0
932 104 2 0 15.154336925833624 2.4252818466495634 27.875347011556755 0 0 0
937 105 1 0 19.523309666063412 1.8327290455521594 26.283688087986967 0 0 0
941 105 2 0 20.651131375556446 2.767230796120595 27.446611310379396 0 0 0
946 106 1 0 -4.529703240092683 6.335344057552919 26.739754244590493 0 0 0
951 106 2 0 -2.850229343324649 6.021580334263019 26.241213209994633 0 0 0
959 107 2 0 1.3583715925819582 7.103780122576543 28.146564841897955 0 0 0
954 106 2 0 0.31223766099390904 5.123951770551738 27.85479309434703 0 0 0
955 107 1 0 0.6483583628927785 6.4662075404335235 26.659866456880778 0 0 0
960 107 2 0 2.235886151098967 6.540231844031335 25.738564290795843 0 0 0
963 107 2 0 5.15006668784255 4.922394258333106 27.967695963775206 0 0 0
968 108 2 0 6.098874631653732 7.214853698393698 27.980969017598078 0 0 0
964 108 1 0 5.601961346502736 6.189765526439675 26.60709819543792 0 0 0
969 108 2 0 7.05660505081061 6.8486806784783525 25.75784806949718 0 0 0
965 108 1 0 8.742276655813328 6.93854047894877 25.25307472815875 0 0 0
976 109 2 0 10.317453455102457 7.011923600137413 26.124117653768856 0 0 0
972 108 2 0 12.383075264154813 4.558371786212479 27.348721282171724 0 0 0
973 109 1 0 11.768186053779912 6.1557667928510895 26.944735185971872 0 0 0
978 109 2 0 13.47859690320032 6.207706628634135 26.296151043078154 0 0 0
985 110 2 0 16.17167550613999 5.866212831760189 25.868135228553854 0 0 0
982 110 1 0 17.385985085636747 5.792702403707937 27.188248714198608 0 0 0
987 110 2 0 18.483315462159915 5.585899517288991 25.727689490391086 0 0 0
990 110 2 0 21.72151717396133 4.627128026655701 26.647702829632827 0 0 0
949 106 2 0 20.578458297217253 6.466355265298738 25.52840464605594 -1 0 0
950 106 2 0 -3.6704202619743014 7.739228454332773 27.650711965644987 0 0 0
999 111 2 0 -1.635346502125683 10.11188505948689 27.6706394393617 0 0 0
967 108 2 0 4.705360613581499 7.3436492573040635 25.60720654426847 0 0 0
977 109 2 0 11.754262154249727 7.835791026910831 27.691612587924368 0 0 0
1026 114 2 0 12.939054095389029 9.7045958056933 27.504178553735827 0 0 0
1035 115 2 0 18.601056221357396 9.119528169334272 26.944938287771862 0 0 0
991 111 1 0 -7.2471591187431175 10.661994892808691 26.269145744582573 0 0 0
995 111 2 0 -6.549773487077077 11.991888219479724 27.275484355614815 0 0 0
996 111 2 0 -5.611459733578206 10.984248871236947 25.534287479347157 0 0 0
1003 112 2 0 -2.268918089409657 10.733042898968788 25.52270126693584 0 0 0
1000 112 1 0 -0.7077331883734721 11.008497432947262 26.421261898950725 0 0 0
1004 112 2 0 -0.16866485222475847 11.927250401884557 27.94369058370411 0 0 0
1012 113 2 0 2.7222475413155482 11.80439513229536 25.987778597212547 0 0 0
1009 113 1 0 3.712583672283495 11.261355493354293 27.50370116661285 0 0 0
1014 113 2 0 4.682402509838878 10.91698359166768 25.974933608570083 0 0 0
1021 114 2 0 7.263220289169917 10.66201828337548 26.163544991529086 0 0 0
1022 114 2 0 9.679629433266241 12.377216991138212 27.91195102114927 0 0 0
1018 114 1 0 8.545563968304238 11.073171752445665 27.33329145242869 0 0 0
1023 114 2 0 9.686630676868642 11.186084182863633 26.01064937309775 0 0 0
1030 115 2 0 12.491373629954802 11.45006740543401 26.02551339256646 0 0 0
1032 115 2 0 15.332321539002288 10.50881745801922 25.27673125121609 0 0 0
1027 115 1 0 14.088143602492279 10.800142467477269 26.633987448292324 0 0 0
1031 115 2 0 14.718406618686933 12.417591183742177 26.429658220690847 0 0 0
994 111 2 0 17.74840223981625 10.428939322689082 25.271584724805244 -1 0 0
1036 116 1 0 -9.353385831326026 14.961850534720886 26.805714606971883 0 0 0
1041 116 2 0 -7.7643772794497945 15.148689306226208 25.920000914376324 0 0 0
1048 117 2 0 -5.152005855686207 15.017206947253667 25.468162270879233 0 0 0
1045 117 1 0 -4.1429484504720655 14.586539070302805 26.96688582784151 0 0 0
1050 117 2 0 -2.8716909577834673 14.70850706208198 25.66325895466317 0 0 0
1057 118 2 0 -0.2529229831991624 14.898452255605852 25.91859544313312 0 0 0
1053 117 2 0 0.7533795015705644 14.018547695296997 27.813250628675917 0 0 0
1054 118 1 0 1.356960549826891 15.201906226751722 26.650676800999108 0 0 0
1059 118 2 0 2.891419431780358 15.597401029310076 25.76285448191414 0 0 0
1062 118 2 0 5.96155543098046 13.94602147596941 27.487922655884134 0 0 0
1068 119 2 0 7.851045141171806 15.193117602109472 25.553201307770095 0 0 0
1063 119 1 0 6.341194965579019 15.429310082061415 26.519214245572677 0 0 0
1075 120 2 0 10.498441673692316 15.467892498652683 26.193337479996856 0 0 0
1071 119 2 0 11.375784687865561 14.282426091415116 27.997604574891675 0 0 0
1072 120 1 0 12.059446556280285 15.646528733702256 27.060829551275184 0 0 0
1077 120 2 0 13.620227571221779 15.80443054807837 26.250161770657307 0 0 0
1039 116 2 0 15.672632090490376 15.73764595163191 26.955497192395256 -1 0 0
1073 120 1 0 15.137208087954418 15.665229342862586 25.245356844901323 0 0 0
1080 120 2 0 16.424267454341752 13.463566258370722 27.582410399232536 0 0 0
1125 125 2 0 -12.246546291991558 18.699248237559935 28.112552593080785 1 0 0
1040 116 2 0 -8.782043670326374 16.424427394965875 27.664818060343507 0 0 0
1049 117 2 0 -3.301876048119788 16.00877396261776 27.842636418880247 0 0 0
1098 122 2 0 -2.106442605210042 18.106581572077502 27.514034220480788 0 0 0
1058 118 2 0 2.190465354490972 16.072010468746278 27.961131934505737 0 0 0
1104 123 2 0 -0.20048957484707275 18.41660741935828 26.475164003932463 0 0 0
1066 119 2 0 5.19395413065245 16.71380156946772 25.925983264065017 0 0 0
1067 119 2 0 7.1214988467901055 16.917227366049424 27.25261439240878 0 0 0
1084 121 2 0 -12.772953849443503 19.574457997196916 25.978214219117355 0 0 0
1081 121 1 0 -11.413661545919187 19.929606119399267 27.09076122250368 0 0 0
1086 121 2 0 -10.407533144572687 19.728423406856024 25.611492879312706 0 0 0
1089 121 2 0 -7.457337019478778 19.211638740779186 27.794148308488964 0 0 0
1090 122 1 0 -6.353718902394448 19.861257678229016 26.406486014252557 0 0 0
1093 122 2 0 -7.932088454643928 20.027977158365964 25.59339511766673 0 0 0
1095 122 2 0 -5.258213157208752 18.830525468756036 25.31972123327492 0 0 0
1094 122 2 0 -5.699745326077972 20.996493259940365 27.791864990539572 0 0 0
1102 123 2 0 -3.0291853793161954 20.156885606781046 25.63831943161403 0 0 0
1099 123 1 0 -1.500981268885187 19.649255563945523 26.60468141181812 0 0 0
1103 123 2 0 -1.907215798714602 21.397684178234613 26.94946170510042 0 0 0
1100 123 1 0 0.6707070172366789 19.523762030648975 25.42683549236267 0 0 0
1111 124 2 0 2.1153291670917245 19.36024014494599 26.56607680608394 0 0 0
1112 124 2 0 4.384607763069857 21.4041874740946 28.036982611355093 0 0 0
1108 124 1 0 3.740632732714541 19.924862190675498 27.28337341779669 0 0 0
1113 124 2 0 5.162100723675467 20.252014662309342 26.306487750646987 0 0 0
1109 124 1 0 6.615833206155282 20.05563422633528 25.223312818328374 0 0 0
1120 125 2 0 8.22288820344344 19.96371535090767 25.971436638264137 0 0 0
1117 125 1 0 9.336924098063692 19.619844748166535 27.411957191646763 0 0 0
1122 125 2 0 10.477229773364195 20.04939556108676 26.02777636384984 0 0 0
1118 125 1 0 12.105998850754538 19.92285245034482 25.25971288792806 0 0 0

Velocities

3 -2.127087044883488 2.4188892418227113 0.2802011957344199
8 4.514434971553119 -7.288491301427349 0.32168606260776783
17 4.9656722006556535 -3.629290867530803 3.8532369696708475
11 -1.3572922574706474 1.2665889903114738 3.5574068418508755
12 -1.0480900327252463 -4.843727371950899 -0.008635329928589782
20 -4.268847115484513 0.264199567752799 -3.0061344538930554
26 1.0716512747558375 6.306039608986726 -6.188494420182324
35 1.0449534470605948 -1.7900599791971972 0.09494315931153811
30 -0.7918834886157475 -0.38455114420567893 2.8836419117526173
29 -0.22260299427400818 3.1692722950088665 2.4688221874799505
39 2.7995585757776276 -5.353576964080426 -1.5600247751295246
44 4.616006909279095 -1.6362488407512559 -6.012229390145244
48 -1.4874752513281886 0.4365248404257913 0.06794158899877362
2 -3.090341834719066 1.0075951722860879 -1.7901063998160278
7 4.079924964945013 2.5590345478120238 3.244707017155892
57 0.4548946203783185 3.1279504003930634 0.8533571578523594
16 5.19939019211238 3.2760203053752632 -0.8723839129303638
25 1.7696218520725826 1.4447952725066502 2.2957176563440425
66 0.42063097252947773 -6.633386598585839 -1.3765436917972227
75 1.6052108791521538 -4.967148410809041 -3.3434664274922703
33 1.9697474556486663 -3.068236918840183 -3.269429882927252
981 4.526806456818483 4.269416187025296 2.87565903831367
34 -5.850377858531712 4.097710785933524 -1.758327261595855
38 -1.2037223122090854 1.1935442421825901 -2.111853875779284
43 5.909565962790613 -6.825217535388622 1.319173164462853
84 1.5688548482880333 -0.9098949620041018 1.1987252328530797
49 -0.3468025155353893 -3.599829137391568 -1.3541196633537704
53 2.128673451233142 0.7206755891894687 4.507337630460711
47 -0.1265599478176037 -2.7182903243779633 -1.6733845021808857
62 -1.849753556268574 -1.8072026197020046 0.8971981860315335
56 0.6758956135210735 0.07495855346113452 4.281884708253368
70 -4.481282182001877 0.13402652014412955 -2.7295970626456763
65 2.3236029300831516 3.039287725469648 -0.7382558899618117
71 -3.789274718901293 1.120440853115431 -1.591440765482503
74 0.16780637667776369 0.7227999973998286 2.695414059183969
80 -3.455748503181494 5.562672815848954 2.4604796532600237
986 6.007902412427011 -0.7621644074210201 -3.9343100976307497
88 -0.7943001834648705 -4.2592125505294804 5.3457103892523214
83 1.893414750153024 0.2805147204202307 1.642587620448907
89 -0.5124262973643233 4.492317498170342 -8.345162805305659
98 -0.906949842036227 -0.14339296176284227 -5.73302534728518
93 4.272751727880606 4.048793981488034 3.625143963788745
52 -4.483660010825924 0.9921476564214181 0.42900264239010355
102 -3.311974824324338 -3.190863790252474 1.0027046679862865
107 4.249811462304396 6.097397413732281 4.110964654462277
1008 4.283300719824944 -6.225344624084605 -4.794488927945832
61 -3.1402410854841443 -6.2776259229695865 -0.09284026612349364
111 -4.054114497413107 0.9528351651828263 -0.12017731369445696
116 -3.48319525634051 -1.102291559263542 5.052695947332402
1017 -1.4256996035121525 -5.901085188171476 0.3997236716857157
110 -4.6901252764461185 -2.967051191726119 -3.1920697930114037
79 -2.5903914900929994 -4.093855129958656 1.8297213734001039
120 -8.866270300490367 1.4843265120805924 -0.5723859976907336
125 1.5421939409952614 -0.6998442407661963 -1.4556503504707294
134 -1.0151129421848257 -0.9338081526395454 2.6655523903023894
129 -0.31217730353285 -1.486108291662313 -0.9280350404830687
96 -9.686694207187776 1.09934906319294 7.006278252581851
92 -0.660498598634249 5.879165530809996 -0.5087212889602113
97 1.3328835922510482 6.152099476133885 -4.384878758622563
106 -7.335105238043853 -3.1169464228191517 -3.7932664908113365
156 0.3242691495828915 -0.8018959898428223 4.031103051339456
1013 1.0594991080196485 0.38714445812792386 -1.895480474442047
115 8.828861257253172 4.604587625948331 -5.986811813417013
124 -2.406407938814352 -6.250528645170787 -1.625158037245657
119 4.824802124752703 4.297006281529834 1.2765857396940234
174 0.14397364796494497 3.5475699659602875 1.3482240299088035
133 2.670721912880295 5.808090457678248 4.405823144867875
128 2.8173700762778506 -1.6338772883599608 -2.934866782916412
143 -3.106600586031875 -3.3725552808281813 -3.8341248590149446
137 0.7825804516031992 1.1067569012617051 -0.7867380693535206
138 1.3530128822923622 3.6744601773549217 -2.0127771766189007
1044 1.169134731445952 -2.4939663224855 -8.768114842668654
147 -0.13455229605975874 -0.7930113855935215 0.3755704705771484
152 3.7363406514425304 -5.273372495114208 -2.459072643675997
146 -1.0064349255049307 -0.6093449459101484 -2.3399127295861977
161 -4.994929901988641 -3.1522756581100224 5.048588898928696
155 0.10857591096827912 1.674920311512107 -0.013862736430373945
170 4.558143637300894 -2.4000112301666183 2.848698679068165
165 -0.890330479028398 -2.1696760460384183 0.49543219616032197
164 6.400817614702307 -0.46050045663894906 -0.1264973509492552
173 -0.5624047378216938 0.13477861432061747 2.507228464111062
179 -2.4121273057724872 -5.856370855372913 0.6469271062582646
183 -1.394369231954622 6.058622481232292 -3.14914547314979
142 -0.43974126889722615 1.7280161442790238 6.637184089225888
192 2.325357219964836 6.0556676869897785 -4.816946977077138
197 -7.740011462482726 1.215080221438744 3.5159490728412703
151 -1.1835831480135826 -2.07530776243265 -2.9429954632024398
201 3.1880981078399704 1.4753147167856753 0.8050795779202038
206 -2.3863615549612365 2.3550586663553252 -0.5284878719221844
160 -13.82054120768151 4.070841069810383 2.3916052903916447
1107 6.689885459521585 3.4409760632869695 10.164314751778369
210 4.43248451298003 0.8120687549999134 -3.073546050422813
215 2.639954712839023 3.9326911867422614 -2.833850772564724
169 1.0166614998671661 -1.3115254749250829 -1.2185086408781831
1116 1.2006968862154908 0.9269845772525792 0.358384879871577
219 1.8481643168200335 1.8505145371643037 1.0356336026537134
178 -6.496815996543589 -2.511257549077128 -7.202937271554103
1076 -0.7048864690906941 -3.8481492447911996 -3.812035385377113
182 2.3484546262327295 1.940778069420035 -1.8177282861171278
187 1.1078545792987458 5.816542661690271 -2.2898256634759235
188 -3.2885543574103195 -4.4199322821713745 3.3271552384197025
196 -5.297270218419752 3.285917050962604 0.9624046108232682
204 -0.8491405140201765 -2.6338290412202614 -1.8354193331789166
21 2.434452592268827 1.7120706120749976 1.1242714334086354
205 -2.5424609673451486 1.772953938668094 -4.388560572288452
200 -1.4227008184998065 -0.8973465956292602 -3.276211316378475
214 -3.363023716191963 -2.176890296532825 5.978094269876717
209 0.04579940684106518 4.736338307026577 -1.4429117660622715
1121 -5.405971975092108 -2.5700774961059234 -0.8788186330207048
218 -2.4790107247851623 1.576312812862463 -0.7414593148338634
223 2.1803638189755796 -4.083542559712053 5.90734661280455
45 -1.5798382290963697 7.349976399106963 -1.0973212486537358
1 -2.4522522664750137 -2.0594034782463257 -0.7979570518976897
6 -7.870812336733662 1.7563845837930792 0.07992691518213547
15 -0.7934193093844957 5.005400173105173 2.8458800257390138
10 1.3080696599888055 -1.9785906161755107 -2.502971583675979
9 -0.5727417585078308 0.43704762415835424 4.12618277212404
18 1.734789967323052 3.203918604184137 0.6661264646776561
22 -6.995772077400112 5.705078687073457 1.2194910662998155
31 -1.8235896596003218 5.067508518801993 1.6760359951760382
27 0.3718437981627965 -2.75085265602342 5.847351643613553
203 -0.9287434154712648 -1.9082146814216154 7.373693598493645
36 9.747210992473253 0.8530306332746973 2.3586800000687314
221 -3.810433004197568 -0.724668371284371 -1.6401272140275596
4 -2.3461638417548327 6.336736098631075 -5.753917275070854
5 -0.6724288758805607 -5.45068547077103 -2.0986893293493254
13 -5.176749321091619 -3.7997503309697733 -2.948601874396598
14 2.0306831622879606 -2.9668877207232764 -0.11605968365738317
63 -2.559023955954328 2.289368277600056 0.33082283683677777
19 6.558481575496693 -3.018756558333294 -0.9625212845872937
24 1.46073206120444 0.6104943970866628 5.313458264719374
28 5.827329916855927 0.6676634836535491 5.633594477164843
32 3.050748636263756 -1.1694934248970916 10.709261221405166
40 1.6115242406859096 7.273377137559903 -1.5501826897784279
37 -4.856115972750152 -3.5104097662025553 4.173764860997312
42 4.226188397510828 -1.5698962973085506 7.6351128629982465
41 6.298622280469782 5.2820981618749485 -1.8834584998066697
46 1.6918272137718875 2.7102311703658937 -4.451955690128918
51 -4.87484638114221 -0.34870184672207694 5.462293156045188
50 3.5275175569053308 -5.350954495161532 -2.3482007896686996
58 -6.634621615622084 3.8281569276106806 7.311416766189046
55 -0.8413876305695367 -1.3261419287313232 6.21151076299347
60 -3.860029348621382 1.8661155907501001 0.49819512734921373
59 -2.435570818303825 4.939240393215143 -2.464952939963155
67 3.591042296533917 -0.644149799641628 -1.0045994299360663
64 -3.807806690515528 1.277321657432221 1.3806974964582084
69 6.493129054700842 -3.6780796447001576 -0.48617299486812915
76 7.991138025570457 -1.792626174036857 3.5921758264770274
72 -6.12988451519414 -2.4199920315396644 3.992372420621085
73 -0.22310194337305042 -0.551070954880738 4.603329043042189
77 5.264539765213954 -2.019811334017592 -3.3966342808434344
78 5.474545791600664 -1.7844137829753337 2.064930061805665
85 -1.3863420199760588 4.680911257825843 -3.186816775180171
82 2.0314880839177616 -5.1196472077408135 -2.3588088029105365
86 -0.44700729709838305 -4.212512938997198 -5.061605410374587
87 4.412855570794212 4.676818234305956 5.070448499707501
81 -3.246439201560191 -0.9227478605396443 5.294246276383607
90 -0.2743725234678203 7.631020216634628 5.515423017530416
135 -2.019233334274015 3.2841373612790057 -5.8909798112124845
99 -5.776505892892811 -1.983742043971719 -0.5685731292183145
108 -1.2271440979773376 -2.39374829658184 -6.588262713033855
121 1.4230955026310907 2.3875715683327146 -5.6087931893087415
126 -0.5878416376342737 4.756635550163409 -2.25563901667931
91 -1.6808606548119942 5.479148891924128 -1.2353795597233281
95 4.555383990106293 -2.5206090529912877 -1.796615326590567
103 0.7800493619696384 1.1535119416542978 -3.202323637378423
100 2.1327135170664118 -1.3435135882190352 0.47004449969828466
104 0.29527503476776656 -1.3246269828381703 2.5997489511370784
105 4.21049029469425 -5.056799796669157 0.41507614672156834
101 5.955548117944375 -2.4607030658275932 -3.4700551201597576
112 11.926778128717137 2.5110476066665086 -0.585105344054322
109 1.7508168648632172 0.8869982443923448 -0.4580008719308484
113 -5.43539944598237 5.926819109584385 -6.961548674463292
114 7.160187996525078 -4.0326306784811505 -10.488335315666816
118 -2.4881129747028594 -2.271960065144162 0.558662668729045
123 1.9098801272359294 -0.162175362885496 -4.854904218149434
122 -7.251768321899587 7.370500151383066 -3.076655748842407
130 1.5404904860845214 -3.6451951450430022 4.117584166248682
127 -0.18619158593056467 2.6795962360281127 -1.09966886071818
132 -1.1071834266592542 -3.584080990442386 5.030979518129923
131 2.5919310175135912 3.0159748701682467 5.6565697108168544
94 5.24497333079373 -3.2290642540798715 1.713590588939769
141 6.038443047669316 -2.077317250036865 -3.5870048920886326
148 -2.1286287873368233 -0.49287400683847055 -5.631603605231065
144 5.2331040540274945 -1.1995112743284544 3.37427438084308
145 -1.5868140369521277 -1.3603186626093877 -3.799494716899985
150 -4.444478856593613 -2.5556098200854107 3.145986424204792
157 1.8925370328026123 0.9320593911033547 1.5146100942596443
153 0.22166859496483385 2.6534214712969417 0.7705364275206569
154 -1.847453424482234 0.6414466696099226 3.689937567261043
159 -2.522505630934807 -1.4353570879863833 -1.6018259341475742
166 -2.5329208194803288 1.3451769572482948 -5.045255343001954
162 -4.70217586056408 -7.067922122112313 4.696094778438426
168 4.167800748924522 3.9593924193871444 -1.1372861823856009
163 -2.318636018776755 -5.200760734704398 0.4312488412168252
175 3.8709909521279107 -5.39692447206689 1.7627070730974992
177 -7.795167060440585 -0.435335882330632 5.277383843965798
172 -3.4198839193693646 -2.4414689245966055 3.691502852766208
139 2.879330212522367 3.383857174177982 0.8005676009327138
136 -1.0923550909908224 -2.650768858794741 1.3311498316903398
195 -2.7630422327671864 -8.967616849852186 -0.7404787384142456
149 1.813521901216042 1.11795394082587 -4.985511130307988
158 -1.1525677727617907 -0.03238394675185276 3.129706736759737
207 1.7524013898428767 7.943131555528498 -6.4513266714148765
167 -5.372511362471244 5.407987287988139 -4.9969111782095785
224 -8.56759688656413 0.8708097082934433 8.12054502655775
181 -0.886927044187234 -1.1605224165287367 -2.4883495799516515
184 0.6034679100378163 -4.182816073696452 0.329175891746145
186 -0.6666646141831927 -1.944937654222002 -0.9032275602120632
190 -8.21497588210503 -1.4894395314365607 3.05477960590767
193 3.420128334659608 7.331762197211034 1.028818836144202
194 6.8879500961358 -6.755805736057336 -2.8449243086158313
191 2.586359436847941 2.3219190522108337 -5.141204461941249
202 1.7347355145509087 1.6224747888381215 2.3431166315617884
198 2.9332185109101383 1.2405678514878646 5.637759718747357
199 2.5638168742404286 -2.897749888855784 -3.5264429349263224
211 -4.124177862062448 -4.860153031212379 -2.9254564960266896
212 -4.917222530862457 -5.914974207033832 0.7957181877358148
208 2.7674833890371286 0.9269820587131848 -9.730503822535173
213 1.131782326689972 2.2822946107626736 4.135062571014597
220 -0.5125428540938027 -5.643522965581936 -4.90264255397318
216 -8.740091750789006 -4.2379457338492195 -2.8232624996902858
217 4.569397193362156 -0.8637365080013868 1.330236258459596
222 4.393679343205899 -2.045040494628024 -5.334122641977716
228 -4.444403465089737 1.1331511503678275 -0.3511681447490786
233 1.4775569945860016 1.0415722867595698 -2.1572588860892923
236 7.828831835728159 -2.4422776029845625 0.7416796840620086
242 6.571521842273298 4.522005622392473 2.5121393061103148
237 -3.0728261758868696 2.415195407809555 4.488568026297151
245 3.958085008772805 -7.298157424441385 -1.7564642781652293
246 1.1662215941078897 4.498739416565208 2.7613974491402966
251 0.22067487580870962 4.6636175996217 2.332992361155182
255 -2.2249420050022835 2.1919179049887805 -0.9051923526391756
260 0.9183545513840584 1.6608787280397495 0.14909511135691816
439 2.39026022152149 -0.6019564545534292 -7.2472950118240025
269 -5.206986274068241 1.840871579560929 3.139286706632043
264 -1.8067185153014782 4.487609739256326 2.7818346511319767
448 2.755791760554691 -2.3437439237880433 -3.509328811392897
273 0.7935780159878452 1.6418254191676924 -2.2167584241027494
227 -1.5965552105026777 -2.800657725531912 -0.6791533989757139
232 1.4091363999489275 -3.9539571184850106 -2.023368547766403
282 -4.847504942950248 -4.2066014971539465 -0.5566336623718585
241 4.1525849865055795 5.8322855208213635 -1.2877200930510644
23 3.2101949081211827 2.2833377139279523 -3.1275911345938643
250 -3.421935067030903 -2.3766322810490275 2.218704141609808
291 -3.1435563022700803 -0.38475477039781525 -1.846522681400697
254 5.118065572239246 1.1051973331200167 -0.11120006750503345
300 -6.860792700427629 1.9978589676412444 -0.5138653639813627
259 -0.233626483649851 0.7119668681858863 -1.1046232535782907
268 -0.8857725477949814 1.347342745942229 3.4524385651498504
309 -1.845224024751549 1.8721292870649935 -2.7428563578685345
314 -2.1207517396317077 -3.8103087062160346 -4.262841388472758
278 1.792446927675617 -0.965214419000039 5.064380408454374
272 4.4200282421213535 0.5923711621140465 -0.880727143688501
54 -1.5857391930035907 -0.31612006428634326 2.226107661106778
287 1.5656216785940253 4.300662552457856 -0.42330508740106565
286 -1.6811720685401634 -1.0200282408770598 -7.344105236436395
281 -1.6552970963981615 -4.090975656044475 5.648850251410232
296 -1.411758316756613 2.630254698291615 -0.4501425759039521
290 -2.5443196361290945 -0.45250935412269355 -2.553033146051169
304 1.9926017275509302 0.46834056517124517 0.7077306941365057
299 6.485099055871516 2.8131440700375707 7.158339157708126
305 2.7846491682913452 -8.3435841520434 -1.2016799474034348
308 1.963013100641015 -3.201767073714263 -2.9804334124692837
318 0.39704110785786895 1.6221979319591724 1.0796977561934937
323 -4.17741468028245 1.9401764916254853 -0.3471741701869666
277 0.7840790560886738 -1.9251539712951427 4.886394645156136
332 2.399297056617648 -1.4441637705057802 9.825973295088238
327 4.15969709078554 -1.6153178711343212 -0.4929053506529466
117 1.323534376581148 6.434551529226823 1.616816888959941
68 -1.7949678395467832 4.50459501565072 -9.981749261860513
336 -1.221646752019337 4.441299764247363 3.298912289665415
341 -4.43868793305948 -0.7800315368397943 7.457872360542333
295 -4.773900782699706 2.1125785613705177 2.134595501984072
345 -2.9097142039215584 0.04691068351742217 0.29957421657847083
350 1.1074745956209215 0.4855038611230742 -1.0560839253034053
313 4.609083535400825 1.5271272662975885 -3.2310937368670514
354 2.4136879137490244 0.7630650393385406 -3.890009496907237
359 -9.779361277819145 1.404012355988365 2.6647495071592693
363 -0.6803633345705861 -6.119739200805806 3.078446696187411
317 -4.346284917614087 -4.433190821158505 4.146517849537953
331 6.198052869254931 -3.582820865053274 -8.42693576715862
326 -2.1752224435976464 5.1713818414675625 -0.6576313836223133
381 3.9842568804750726 -6.027889064787122 -4.312201585444626
340 -0.3250788390365113 3.6942238447628624 -4.802327323431252
344 6.179690850820509 3.4830982915357867 3.753482801996838
349 1.6015045023228334 7.247794777986296 -4.140787367725604
353 2.959517267641914 1.1803054409192735 -3.7513308791695095
358 7.846500389660135 1.924347501960091 -0.306865200679863
368 -0.7271112898738529 5.070542489557071 2.096499849603464
362 -0.44931545994746114 7.842070369709445 -2.610840987978336
322 3.2629513697417685 2.1619961243740544 2.022595620755984
372 -2.235639338322925 -4.424323506398677 0.6448385520685666
377 2.4750089987344404 -6.85981056141351 -1.42472091622968
386 4.666510665436602 -3.4117229295735467 2.921118520803941
380 0.16434169280131192 -2.1892882889747507 1.3922330829571585
395 -1.1711782042752776 5.3103568212122045 -4.250965996976521
390 4.602336305575038 -1.9633913940189218 -3.099369970730552
171 -7.127457348301973 4.866525594337267 -0.8602612321168681
399 0.5603455422426534 -1.4113469889689225 0.48042675430343484
180 -5.147028762850843 -6.037703781511353 -4.575024766035662
404 1.3144170221922962 -4.881740342246798 -2.877904964521678
140 -2.2325219448592457 4.515085590630682 7.603835790590623
413 1.6711774371908055 3.372260358812222 3.701136740972117
189 -0.8202104869154402 -1.0800176666052435 -3.3647495333879047
408 -0.680361024601342 -7.226159909469317 -5.805025453205506
367 2.6746131477102595 2.0085738614071014 1.7264610352470433
371 -0.48466828698820064 -0.014286724882090918 -5.207618510341638
417 -3.8869673181714766 -2.3385376975013017 -0.45753228887987474
376 0.6785320408686074 -1.4662107876419586 4.660056131936423
426 -2.6667821437131 -2.686011590812482 2.120152192123855
385 3.3532985915562166 -2.163150421917662 -1.2625113836458017
435 0.33307734489737856 -2.182602797977667 -1.3587041168772325
394 4.733317313140188 -0.4279865002771081 6.100623118601356
176 2.8298744228254598 3.0781967973188045 3.45154702560912
444 -7.083429712020722 3.4364226992083315 0.5745045725162147
403 6.12198019085165 6.776234372108065 0.6977768841907382
185 2.5819243567859647 2.377416044049567 -4.182434287489511
412 2.7065039730869316 -3.940826262013417 2.127061165123365
416 2.3493322756163195 -0.04291609952904455 1.874824368762899
421 -4.598617941853366 -3.468299990860056 -3.2018356528186045
422 -1.249790168532647 -1.233374302069829 -6.119861369002707
430 -2.0215693735957623 -0.07914512989367478 -0.6824655941379397
431 3.6515543032982194 -1.4384162152180782 -5.911853012509495
425 -1.3219624278540856 -1.9527316422585748 -2.916778976470341
436 0.9631262711782588 -0.43821340078814486 4.111936902446734
434 2.8133182230469638 -0.1737273970195308 2.8241245892592346
440 -1.3660859113430612 -3.1857630747366956 -2.4365224213208303
225 -2.8765905445474487 -0.15093980346228364 1.4526313222952651
449 -0.2625587475047176 -3.527656054120186 3.506918919782499
234 -1.5718341702553424 1.4283718126162501 -7.066374151403754
410 1.82921093784892 0.949097812285195 -4.212635691216964
249 5.1596042140848635 0.7257554750665892 -1.0691969782181174
243 -3.110062140610775 1.749116129050595 -3.0131581993241916
244 0.3080381278718231 2.7418766731724 -1.5812671657531137
253 4.799740443701202 -3.641704809645555 2.111304622128705
256 3.7872898845880534 -7.221876346914592 -6.213954012605175
261 6.931233795725591 0.059957504509380054 -2.75317496424201
262 4.717330549184393 0.0016332566286568029 -4.63154845231821
265 7.885690476650379 3.5272355100245556 8.389287160228522
267 7.055027550982166 -3.5498434607931024 0.7472908761024092
270 -0.4464670998195445 -5.19751236722268 1.5997062621278477
231 -5.692098650324984 -6.980546779712442 3.723910220359289
229 -4.988378122552983 -1.1232294088672752 1.4535377625685943
226 1.17792738801059 6.20582991897408 3.2006511554250197
230 -1.3103171605948343 2.8072953934412443 4.841171379996493
238 1.0092533137719404 1.2394317502424614 -0.10753607972443402
240 6.31217422299303 -0.125942013335094 -2.8605132735079626
235 -3.1356485561527854 4.392854015137245 2.576988434733236
239 -4.921764039440089 2.1923867364100125 3.2703057961009856
247 2.4830981144382127 -4.3714008971031815 -5.205883555877286
248 5.431051012075852 -8.528357418077182 1.9450578023049256
297 1.9773153004180377 -6.27448531403852 5.032874190606977
258 -0.17693688015075582 6.499260992570204 -5.480413744209964
266 -3.3330881930760565 -0.12793391022237202 -3.4406724110117772
263 1.6911373429040253 -2.7846628199591708 3.31924440909825
271 -0.28089747543773563 -2.4131902114940544 1.8853941889847072
276 0.13706029705528125 1.988962878822112 -2.9634157951033564
283 3.1084458832618798 5.388037974166292 5.981158385121085
285 -0.9768831300725315 1.3933815627671007 -5.094129679687216
279 2.6493010884034334 -2.3137159028955026 4.230200785487492
280 0.5711024848343916 -4.519264934226617 -4.068354776340491
284 -0.3060623406305155 -4.0373723515544855 -1.6076955779194757
292 -0.7691512918319032 -1.2910775581362892 -0.15298519863281398
294 -0.564510889274429 4.2235536525745925 1.6094932467652165
289 5.900754509909004 -3.3575012043819545 1.779685440742725
301 1.2579012426657454 -0.8863367403594149 1.138683201712214
303 -0.7762266799780269 5.5957729384434 -4.716247300939371
298 -1.8025916887684588 1.6861867479087116 7.7611170007088255
302 -2.1913860543423858 3.0156271054041026 3.127098506000784
310 4.099522698518728 8.681990840746133 4.0235187306177504
306 -0.02291129294594402 1.8986451823071024 -0.6215182225889476
307 -6.570440092447237 -6.615361891149114 -3.628737822819203
312 0.3151638311001308 -0.8630051873178011 10.05547655404753
311 -8.941981380025448 3.707554112653101 7.807359209268981
315 -1.3145765876741258 -4.348090957858018 5.914368259127349
274 -7.148944391178845 -5.949118472426852 -0.5068884316448105
342 2.4559364418907834 0.8686049952861231 -1.1440690964482165
351 -0.1632076250053456 8.257691917698294 1.3398805538031726
360 -5.4338101301814765 4.212651078536662 -3.871011441237498
316 4.198796104337372 -0.5323251178272215 -3.5964484088507174
320 3.871565972638311 6.924064300632443 0.5564194830191437
321 -1.7369420314306956 2.964146176291277 -0.6110732781506448
328 -2.7578400165775223 -5.004845111364919 6.637572827889072
330 0.015608426465798773 -9.09719964158461 3.9434118637735422
325 0.7069744800600483 0.958350126869258 -1.9481545947125107
329 -0.9771637864237108 0.7226393190723978 3.640622010180881
337 -8.668395679537428 2.7319550497137874 -2.7889998143459236
339 -0.3637956672134636 0.017644380804851447 -2.172048755579306
334 -3.345324376842164 -2.294866342725869 -4.376833860087011
335 -1.7297225468631792 0.4456629989306485 -2.3599130712382106
346 -1.3891650783672513 3.388901936441778 -6.245223871452549
343 3.6382091953271667 4.8354792628596925 1.9174778234860148
347 8.796758314187302 1.2172353280769175 -2.4435536806776916
348 2.340151816752559 -1.1330368983784633 2.129264860051982
355 7.279250344185695 -1.4837562615573339 -6.627337532095993
357 1.8342279302183901 -0.10911292958027084 1.2470178789721231
352 0.1069740150248296 0.6651101270314134 3.855152465541048
356 4.906682047539408 5.334406003902396 -5.960743819392216
319 -6.8622353614392315 6.64158521476272 -2.9001134702490066
361 1.506007758459456 -0.5966867113522614 -0.8909513922664232
366 -4.0232927135232135 2.820879284229567 1.468031008592243
373 -0.048702452039022494 -1.9056787321875974 3.0377482188872853
369 3.2215632311197147 5.700787094177418 0.1760911357182459
370 2.6684993624805164 2.25887970660087 -0.2528649037279494
384 0.17900422321514642 7.322454772344548 -7.67611270291785
379 2.7312508632366503 2.9056167546751555 5.681614514698442
391 -2.4913446288334864 0.3410652535792305 -2.926280318646257
387 -5.257195408569711 1.5686051056753736 -2.4358399628994074
388 -1.8321342404771095 -0.1803790147820637 -2.426273650705701
393 1.3847992658656825 0.3062958601053403 6.468110033402328
389 -3.355983043241091 0.8648340792194642 -0.6371608341532508
400 1.85350967954382 -4.196197832459781 0.6444310449186986
402 -1.6987220018146478 -5.385323790627525 -3.5907537272473635
364 1.2802332095678894 -11.10782586124905 -0.5252777953797415
398 -2.0966976550852183 0.6718505929514456 3.3570075535619166
411 -1.6424230528709598 0.2588418858054621 -1.184045677402622
414 1.3110104707386996 1.9683048206854041 13.93259793982069
374 3.6680939541225674 -2.7000435844187103 2.90316073917234
375 6.635246815223684 -7.738923167129137 7.708813972785746
382 -0.9627681830898096 -1.029858857759588 1.2738550373062805
383 -6.441770135546726 -5.665658444592217 1.86744598413231
392 4.398041329795655 -5.347033413683359 -2.2738972213134465
397 -1.013635072430853 0.14372020723449724 -1.171269175292726
406 -4.871787372031873 0.5920239352508174 -1.217706353680039
407 -2.651655184779659 1.964630016479432 0.30609805748227403
418 3.7581946471070333 4.516141182984755 -1.9635521866492722
415 -0.24159011737878144 0.14159651038780724 8.097911953244644
419 -6.311415459951587 -0.21152765231047807 -0.09931692996786072
420 -2.297076188034297 1.1699122771381085 -3.964013518919443
427 -1.796419082471241 2.3714554983126215 0.3931559678057929
424 0.5045000442973874 3.726802803759354 3.9993743846689562
429 -4.3547743471402605 0.30010055961535964 -0.43965344191816585
432 -0.5435085098524818 -5.433292928353222 5.014240708981458
438 -3.512362363112533 2.7884937328243984 -1.0707142036963528
433 1.3622392140955162 -0.8059816131881948 -1.6030784318315023
437 -3.2694479167862256 -4.774871022007043 3.7017622969472903
441 0.6388110409582949 -3.8045447134949497 -5.195872818161225
445 -2.5715142136815317 5.360172426759263 -4.916035576675405
447 7.8768968591129465 3.8808018121898398 -0.8580154836379008
442 -0.22200199546509122 4.037109962952483 0.2861291782077828
446 0.5301940765486424 0.7641007185497714 -4.084294902511143
443 5.079881799221117 3.8765989870236623 -1.705598902863771
409 -0.7441162540789248 -5.220048106544851 -3.1101448075751525
673 -1.8462128945014664 7.212168383349486 -1.82432474915086
453 1.9874337400038247 -2.8760471470532916 0.1428861484254098
458 5.756857468322008 -8.554632343776136 -1.4754444975485244
462 1.2595805478946305 -2.7214124401799964 -0.10576182664328142
467 -2.372931205726948 -8.351188935566302 -3.199697850395624
461 2.167268105451499 -3.9703573817223945 1.5948020279517738
471 -1.8500396879404597 1.6070236540226448 3.3709160483512277
252 5.942715716677797 2.3507198883432334 0.5258911635491572
476 0.10841293358116949 -6.769387417511899 0.9287404345555567
480 -4.230386618922998 0.6416983481860551 4.081333421512314
485 -0.09240045397327502 1.3865760780468848 -2.393915024600613
494 -3.565557393624512 -0.9257507594392775 4.313070051684269
489 -2.432865413549561 0.8345817385509359 -4.131273486723947
493 7.4819132654547005 -0.5961904099024822 9.570696333891624
454 -2.669991939036636 2.657459602013526 -3.1852350827076124
452 0.8788196826114368 1.3099890465761412 4.614644529218198
457 1.4537752662921937 -1.73625314468192 1.2016640390631397
498 2.628381086739492 -2.8217297499023797 0.21931171111306483
507 -3.373811695216244 0.24795333239359657 -0.5746229254002462
466 -0.5054657246174202 -5.59301306731516 1.300148546160617
516 -4.052503719366971 -4.6178906244961535 0.5199353376597498
521 -2.1396823294341023 2.7327817866556936 -2.6345041427281735
475 1.573534269164316 -7.234131202221056 0.5614989061828387
257 1.9532976632918224 3.843955354891868 -2.711520162439875
525 -3.0731686194443455 2.313689932514412 2.4950473605911343
530 -0.9220309521496985 3.254561748960429 2.191529774231165
484 4.4617913222127745 -0.4383388754489774 -1.3410806594763602
534 3.8177458764473235 -0.7926184429335587 -3.2408564441742276
488 3.0451521757424747 2.39407214431638 -2.6681150172497814
503 -0.07690196542120825 7.250755118673059 3.3236137011277456
497 -0.6808012033780833 1.332902328075376 2.330213237797443
508 -5.846910939590623 -0.3958880255235307 3.3466759615275268
512 0.7024363637391924 -5.11465680229211 2.4681547928237504
506 -0.04243291318933854 -5.074824632326826 -0.05287896439047427
288 4.009933329229762 1.579889327360716 -11.219781201327539
293 -1.3425506472595774 -9.106015350011818 4.033683059148158
515 -1.0183627821206827 -1.834288771449773 -0.4768464463125407
520 0.5152477944934554 -1.0696957876935458 -2.1212386059992654
529 -3.377022244017169 -3.3388108841481587 -5.426306491871731
524 0.5729537159767077 1.7359461589487613 -3.4717624235031237
535 8.786345718058914 10.232961620377699 -0.19092924319998178
538 -1.5863663881409569 -0.9210974192712343 3.3749218351327914
533 -1.8612493403509143 2.16353979745372 0.2271254321275922
539 3.8208339160022704 1.2537888265443398 0.9379538746688603
275 -4.8784159418294255 -6.93702042697828 4.910816951576647
548 7.787993426185052 3.4910769563066233 -0.34731913698012384
324 -0.24925249767752297 -5.060557969827173 4.59778084904864
543 5.210848461023682 3.950969611279596 -4.609840233822202
502 1.6944588922270307 -3.7503517230050205 1.0073910375703854
511 3.2570628718994468 1.6140418642807242 -0.5446429547589321
552 -0.34452158651835757 2.4969945244016216 2.9736662195631722
333 -4.364491679642389 1.2058713529470901 2.3002821295257148
566 0.261806849438881 4.3341628615524765 -4.797628848178924
561 0.5363054812091316 4.504242133252525 -0.024600143956271404
570 2.804628480675467 0.8399345501485832 -2.410969842229018
575 -6.37325013130721 -9.669935858753185 -1.7068951925194387
579 6.420475181672112 5.01435408491595 0.6189690775638301
584 1.0471780402413329 2.2077193200186693 6.873969203331045
542 -0.2874029066080702 3.752994641967724 -0.1562508325173313
547 7.914837652322056 -1.7744930856716565 -1.549113606336593
551 1.7459750776118568 0.5993021334197668 -6.770375242405013
557 -3.0542138833257138 0.34143161785356363 1.6952419456947805
338 -9.664865329781772 -4.100344784220549 1.9209839970217424
560 1.5611250880687146 -2.065585312700929 2.6785523355100795
565 2.066091604458261 -5.913951688730574 -6.2690313098865795
615 1.5915671224446366 -2.359858047067282 -7.501138147646805
574 -3.157049033713733 2.087981247966116 0.39419872274691853
578 -5.817020797930559 -0.40281741135471943 -3.958825553823016
583 4.051748978687779 8.12751250597392 2.202408140250556
405 10.965511319977193 -2.655177546626594 -0.27909209423146236
587 1.0884144417004662 -1.5251939080518275 0.4727700388478486
588 -3.553878680671155 1.6856170776016028 -2.5164363551757347
593 7.470662589535493 -4.353616014806257 -2.739992364550579
602 -3.97446434110997 1.3753628713155344 3.951015606992503
597 -4.460241060502783 1.6705912455940506 -6.481150719939182
556 2.9829683532931877 3.1712350700387213 -2.4469397566292823
378 -5.470771528876757 8.301416444256075 -2.9807289776262937
611 -3.1605915591958027 2.0212003882560907 2.2303393490637835
605 -1.5186989913308444 -1.9180924145286624 1.907772367347423
606 2.4042250062936796 -1.771521722124093 6.828463588120076
620 -4.288567091304134 7.069546549575456 3.894970794070901
614 -0.26217176019250604 -0.9078965792240962 -3.838132547847459
396 2.1053489815170727 0.9929122687155626 4.443445956888811
623 1.8371832132878816 -0.12179442172918734 -1.0794046261367385
624 -1.6519860955801868 -0.008382212245004435 3.925651509772723
629 4.368773642045212 6.647352473645424 -2.389427084386187
450 3.286145970250278 7.317935156091968 3.906176165025335
365 1.8741706892928571 -2.105373440187167 0.9178763120682036
633 0.5768714482896634 3.433838627536231 -0.8782136067816035
592 4.164247406551088 -3.7317003585768425 4.049625818565404
642 -1.9826477781174676 1.689194603112733 0.6614171215359804
601 -2.237694602487775 -1.8494377315477288 0.93997983630251
596 -3.670532330425438 0.7868657650667098 0.8271688178567573
651 -0.8917444984213966 -4.305748323039318 -1.2726108204848088
656 -9.59592401361426 -0.42771794476190916 -2.5659297104438616
610 -3.7959744247121807 0.7238114995851345 -0.5959195892917282
660 -5.23499534348551 -2.077317964903653 -4.195228799184848
619 0.4567351820520252 2.6738041353822624 4.681654823460476
665 -3.5236825212655902 1.8496968109567566 -3.340039509277665
401 1.8087680592275486 4.582312396965485 1.7543358144450782
669 0.6787533618517608 -4.106980808148358 -1.2592459449429299
628 -1.431886229707876 0.16378085503837944 -1.6928414495666404
637 -4.071659522276923 -2.3523156255134396 0.3731200230632347
632 -2.2533537665959082 -1.6022535830810611 5.01807764017091
638 -0.6447859691768073 -1.5370615794349038 6.773443397628796
641 -2.7181617818535453 0.748099562862446 1.015886654523078
646 0.9711228156412348 0.021702701378105163 -1.2261943467067657
647 1.5332777355948837 9.929298920866083 -4.767995577997553
423 1.3055703019471698 -1.4662753141313085 1.3450608979957122
428 -7.699916069183902 2.2524979090893607 -3.713735129638784
655 1.3893872632893969 -3.6161270670289647 -3.639164216813309
650 4.520705367193995 0.5998600865447169 -0.315233046446408
659 -1.3356269491753758 6.993127725340232 -6.422855442820277
664 0.815826451653882 -2.7245088029944666 0.17544674159109078
672 0.6789069454337857 -1.5049781393100887 0.5174254050169642
674 9.564046300004303 5.026055532994916 3.145937977127935
668 -0.15722184933035951 0.6792296391707534 -0.32529807590532006
495 -3.141692342009139 -0.9461050779845093 0.6327435130852589
459 2.7791636770279897 -5.765545818801093 -2.132239274862416
465 -8.638613857465403 -0.328785140820257 5.025287685662574
472 -2.1983978480755835 10.727850316414125 2.1364116097961032
474 1.2597644209550662 0.6665444132760151 0.12310621019135275
469 2.450452125442819 5.253740944458958 1.4288638233134174
470 -0.3763708394588254 -0.7906277777321127 3.3329277223550577
481 -0.8934866577090487 4.498069784837284 -0.30824326032024346
477 -4.043097515771312 -1.4130375127370107 5.720398320249092
478 -2.5025417854682184 3.6532206220705192 2.3071666051266995
487 1.931708478278715 2.0189434205704075 2.2715283244560696
486 -0.8560864149217494 -1.4477860724023093 -4.006052647310614
492 1.497671131185801 4.239304757311532 -2.528134900948675
451 -1.2275617502959184 -1.8910589303730252 2.2090882586458593
455 -5.849655837543829 5.814029359092766 0.6654056743277985
456 0.058107083019163085 6.416416352243051 0.5887217704371832
463 1.892743920374298 -3.0139424509571175 -0.21847615510950427
460 0.026013116307115836 2.745890050379753 -6.760226787252252
464 0.6950510755803463 -2.4661361161640802 2.5271597470981897
473 -1.2478760215989995 7.077924730186745 0.3990927033121921
483 5.571459077051369 -1.3963814745508405 6.595050205386407
482 -1.4522173792503321 -6.11492099856754 -1.3568720409985666
479 1.221356900998628 0.03548192047354697 1.6473653711455862
490 -3.5490889010818703 -5.463895692396003 0.30378205221671417
491 -4.019566919816791 -2.7771729588379093 -0.10911151061165006
496 2.656872369560191 -1.1776940822721347 1.3104870750191966
501 -1.0333779804732517 0.264333011955555 -4.573079684971462
540 2.3628033036251934 -0.13064846611371847 -1.7589975961454074
510 2.6009239190620654 -0.26316988998214086 1.7409121858515526
504 -0.41580422503031617 -6.595483493295965 -0.967308235463009
505 -6.859752727517604 -1.163556781796269 3.544241726873936
509 2.9003308614677814 5.516574497537306 1.0418864792541687
517 6.590715918252676 4.27762901139535 2.5451025354463486
513 0.4474705437248704 -1.9391352187390338 4.454360819613969
514 1.9781872573873547 -1.4704050211431055 0.15572662056080885
519 4.390785187053556 0.6540522365923234 3.4403701459561034
526 0.8161415105967533 -0.5266151584290377 -6.499891686674972
522 -5.868666707391083 -4.614113140116124 2.63539977367176
528 -4.78041130230476 9.410719641242325 3.946535963567799
523 -3.340292578936628 0.8729844492887161 -2.5809968715124825
531 -4.076085131298576 2.133742388153173 1.5686977205520796
532 -4.883799667892005 -3.408058554765392 3.214526343305609
537 -2.5623184146275757 -3.1362488524004593 -0.3846059188087951
499 -4.211821976291066 -2.23123887098499 -0.19690776387721404
500 4.18530210558868 5.7025195484932745 -1.0574244430746704
549 -0.5068704441786 1.644840607167165 1.1287393805175607
558 -7.004502389125403 2.295684421373771 -6.492570774515469
518 -4.925458539740308 -3.1301774940652995 3.475521563287738
786 0.11384019501503899 5.694562421424013 3.5655288917756724
567 0.3335315884000494 0.8741311241481396 7.555039162086436
573 -1.4436786779889232 7.054387697165595 -1.0742827535784345
527 -0.26193502399693575 2.7854065210672245 -3.0042313995616445
585 -7.483776711282318 -8.176068770638562 -2.11831599889085
536 2.0126124024588328 -2.1840771641182117 6.81994503556187
541 -0.3087535130951461 -1.6325587763055147 0.5030967365890853
545 1.4906656067706072 -2.952768168535231 6.717979853341961
546 4.174078432826894 -4.71665200867996 -0.3950203138324381
553 9.305073868008211 2.7182225349393496 3.308548822998398
550 2.3896765856360407 1.8774934058650206 -2.4697838785040567
554 7.4077450309701804 5.405826531055494 -1.5187465936255904
555 0.8054568301631361 -0.6676463059087268 5.533892038630808
562 1.7557877587215163 3.0883081047051855 0.7014058401545515
564 0.09230454679573002 1.560312948325775 -3.1619577664789595
559 2.635890365747372 -3.793935284913938 -5.130263269418734
563 -3.063754252501611 2.3221291959557937 5.33719164266204
571 -7.212171607174993 -2.3782038020319214 1.330375621771863
568 -2.5148049038142726 1.9340726328819244 -0.9942066989501813
569 -9.36569309150178 0.0716705183782812 -2.4245245685739207
580 -2.4511697563269603 5.991532469536789 -7.253254251318079
582 4.0066171029557704 -6.795234740537139 6.01145242498552
577 -0.6255327728005825 -5.0282101310913125 2.5345605826724364
581 -3.324053701079903 -3.159225460300545 1.7297977105457938
544 0.31355697507968544 -0.25615682842420934 -5.080468418588749
586 -1.2141885106046968 2.0093546428887348 2.3077258969532264
591 -0.03607556441429476 -3.280666775182223 2.677227064422499
598 -2.6362018728662266 3.952333961860337 0.8015272315775607
594 5.069566055199044 -5.6415567563322755 -3.5617421893573544
595 1.0367852270013898 4.055055688707272 1.4870714971506818
607 3.6469411613117373 -1.7463149514204226 0.5919378413336522
603 -5.001282158052625 1.619339985413007 1.4485901122758886
604 0.36420867898358783 0.43007593701119545 -3.0240437611089788
609 -0.10120383648967274 -2.379120886589408 -7.95529235830277
616 -0.14021845984769565 0.8383455986089785 -0.8626363579518886
612 3.860270901083163 -2.0313980041835116 -3.5677360470330717
618 2.7418513806801825 -3.453234436672877 -2.461604099507759
613 -1.7765530970524188 -2.9040168194202574 1.8277381838968934
625 -1.5382199073214504 4.803139396196779 1.3694820063213007
622 -3.6575883730932004 -7.84606505540881 1.802945567500626
621 0.6631991954663509 1.3936416166927366 0.9317330484632368
627 -0.49790782552154145 2.208562159951329 -4.511995994330278
630 -0.46201585051045263 -1.879707714891779 2.1722321784100886
589 5.1821637728382495 -1.3311123756819467 -4.376759152938936
590 -5.1975647627223305 3.2720653555799304 -6.398868319180715
600 -1.0278091449730646 0.24233620476593334 1.2243872762842043
608 -4.119468626118981 -4.821630901135738 -5.461527164045295
617 -4.754153936492489 1.2240813287235917 -9.264953400569555
626 8.027026626737593 3.9921285143279195 -1.2330412950062426
631 -4.794821715365688 4.392062753965049 2.9337532667301143
634 4.145105181424246 -4.675965930803735 -7.705743319046913
636 3.549895767168587 -2.898250822877687 -0.8543325456029683
643 -2.358531504962291 0.1375934813499479 2.678177415166818
640 -1.1852815308139237 -2.5294509558162135 -1.0380769036162973
645 2.0804995464830136 -5.712616389303005 -4.743965172938556
652 3.0106390529350007 2.144868281753058 -2.8331414523300875
649 0.07520929186798374 0.49853646527389134 -0.9451540713664235
653 2.7845823870514153 1.727631306480099 -0.12993455915488153
654 5.042355976916081 -5.3968361902015385 -3.6497682980704282
661 -3.346938360788964 3.8751416634432405 -4.431414439806715
657 -4.405591938620969 6.306756364519409 -6.015023054609966
658 -1.1302117420368134 -4.726500469773606 -7.797238233531475
663 -0.6294169139331514 -4.017326891780483 1.045583975557129
670 -0.5491165455196854 -2.874146435925052 2.646704757964165
666 -1.05163309868961 3.5654567597593436 -4.012437698026729
667 -2.8857292897056537 1.1824731914235385 2.165882602851482
671 -7.425158217069022 -0.7389909310773127 7.234255472179859
681 -0.7111804265320276 -1.7073355256225722 0.52553180938894
678 1.0479892307456953 -0.29025831452322487 3.4109093217653363
683 0.5518168220124716 -5.094624035618316 -2.029400139122398
677 1.7493451033814185 0.7293811014295434 -1.9877454682130307
692 -3.3840443113234517 3.1810033516127936 1.6616383878881513
687 2.053102944289403 0.7169759888761966 1.9021300263216934
686 -4.93832376980081 -0.6448403015241881 -0.403782900800999
468 1.5364196449352772 1.676328906718521 0.3266970321684053
696 -0.7982132458751339 -4.0054824200244505 -4.031432155932351
701 3.1059252537710704 -1.0754407619803834 -2.0420565342807344
880 2.7664766993179897 0.7871181487146518 -3.743907164916837
705 1.7825348647015056 2.5052289885511634 -4.8586364709427
710 -3.4395401431171706 -3.8074178873779596 -4.461897361547312
719 -6.728483558465624 2.46441025953567 -0.04204198037168606
713 0.33912326430377243 -2.7635622540258797 0.7920835191373451
714 -1.8051308711622345 0.8912414146758147 2.2570157487038816
723 7.261532936770036 -3.123985716286423 -3.038156262824912
728 5.125015654927058 -3.4989552619669992 1.9648793752194476
682 4.33762128214325 -3.0251179640646058 1.1611418485953848
732 1.0130014784802193 -3.751512674804588 3.032008695469132
691 -2.2642574753849094 1.7534880402306947 0.2893076299773296
700 1.5804590894698671 -3.2226645730736054 -1.358566326530315
741 2.478779053891599 -2.2889340909269604 0.9054506384331237
709 5.727433868606864 3.2870180011561687 3.7284636688233737
750 -2.593788771619659 -3.5747746994392973 -4.321737127325592
704 -0.46679173615330544 -0.5771101891322987 3.884975650952406
718 -2.406204181149062 -0.41997691058730574 4.593842618506747
759 -5.591707611669042 3.788030693997982 -2.085761914474771
722 -2.1091982773738196 3.9221675768483677 0.8644341513249865
727 3.7121872374160234 2.6765315830116974 -4.717867495102524
736 -2.053512954446753 -4.366440971568094 4.5836969522073145
737 1.2097749374905413 -3.606296716576853 1.9318036011029673
731 1.5225219257280331 -1.8846060822269939 -3.608777920625817
745 1.9164942660872262 0.054048915147950474 7.94340187612695
746 -4.115178052016761 0.9323859354832091 1.2677748051418443
755 4.30268185611861 7.97935164540089 -2.162870542283214
749 -5.4568691489409975 -3.4284468979558813 -0.7536649846058223
758 1.6516233663725495 -1.3185331375070435 -2.2389863967969332
764 -0.16656797558775385 2.5725867074142266 0.05021868482070669
773 -4.466342802614293 -0.8663532964498822 -6.990426999941131
767 0.12877603740787416 -1.3810611956549694 -3.329384489898334
768 -0.23697272080250456 -3.3486645092966016 -1.2619152892444894
777 2.1798874707271216 -0.2642094773487323 4.35885160143829
782 -0.6467757182168846 -1.7256775239466364 -1.0333517982439
791 -2.0746470910754455 1.5730699976170364 0.23751179596559516
795 3.992342898958365 2.2792280114986867 -4.987012764960672
800 2.6842109739334985 1.1057514033240166 -2.108057196985045
576 7.723335240881076 9.639856782009584 2.365617128839704
754 0.4931889205333772 -3.5114523991428688 2.0025687597437165
763 3.292617291670467 3.5979143607709108 3.362091464152224
804 -0.11928274944236548 -2.4954446104035637 3.0692370489563117
809 -0.618191227744641 4.2001245120709925 -2.0636307884059586
813 0.3100468911542301 2.507085860631553 -4.7182286448102575
772 -2.3782775374933207 -0.49851521487758726 -9.63699414800768
781 3.6682940096379237 -5.47291917492512 -0.11560127674111718
776 5.397735248219477 -0.06008514768327723 1.5316525568213224
831 3.090183424632616 1.8943424690295283 -3.5915029597960215
790 0.2513228978235849 4.450186821519769 -1.3402699302456373
785 -2.6796049974812917 0.6315708731959482 5.010356763532277
572 -3.299231796962919 3.9006705618842923 0.26186583699215454
840 -3.397664743576631 2.8469422667858018 -4.475177313613483
799 3.3139999816020396 -0.5946692475017271 1.639131796715516
808 2.796894386320424 -3.393686991079317 -3.3257682514826112
803 -0.6673689821352174 -6.7239595421135805 2.738392830906532
812 -1.7197105389947822 -1.382293791169807 3.6241167053259065
818 -4.796531176083524 2.6645238476066413 4.402833235935728
827 -1.2585513552942764 0.9948349449742511 0.19131734435934258
821 -4.697443379314048 1.5109883407461264 5.065129542768505
822 -2.8354665071860525 3.057908300089924 2.3447765167696075
836 -1.1112782564150598 -0.10777452982842939 -3.0347405142052803
830 -1.9549922559009554 -0.5117589406083286 -2.515132116688019
843 -5.331018450579331 0.29264135498169136 -1.0399069034156927
845 5.281099660385632 2.5749316743391257 -4.94429859020236
848 -0.6713035278678539 -0.7584041999903894 1.3795001420166613
849 1.2827599089215282 -1.0246018751121881 -1.1372779289003028
854 5.437920633931798 5.791995125632416 -0.2081577861407855
863 6.230621259131693 1.7101038635710075 -2.0148878419818956
639 6.568049450224066 2.087360582110639 -0.7945826537908003
858 4.6984989068447875 -5.746875711323976 0.28271008005841775
817 -4.7161327461428275 0.40474819397508754 2.1905529945577356
599 -3.80346781318722 -4.137582845916629 8.122956868691908
867 2.563387616620835 5.123378246131392 -1.3683383731639482
826 5.1070734563985525 6.94350855356986 -2.782509114861631
876 0.22789893004756304 3.7709027696659896 -1.1749669419562947
835 0.3064296520551314 6.6550271215675405 -1.7647482959017582
890 -3.038048448389588 -1.4194185725835697 -3.1588301346307026
844 4.878763202224648 -1.2387021961029758 2.158817714134268
885 -3.509768282662769 8.335843221240602 -5.429449384559798
894 -2.4454803740852125 -0.8608371436734021 2.020351168608694
899 0.19255177562596706 4.082125567097513 -0.8931914529282365
675 0.6096843761113124 -1.8943903968991374 -0.22027704056020858
853 0.5239012396619845 -0.25147259090581053 7.662633788258269
635 2.153449013771633 -7.7655383568925975 0.27680327903628593
862 -2.5098845955988986 -4.483913323901559 1.3155233712286134
644 -2.0389771722920966 4.308977760564173 1.0085745036673943
857 -2.016541355623461 3.0256721607463173 -4.724942547767671
872 8.793283471176082 3.6371126149306567 -3.4284311894122186
871 -1.7785874936950496 -1.5101078319154173 3.8716089481718714
866 0.01989547736163275 -1.7663112382998167 -1.1541123153724315
648 3.7481217038432293 0.7646113517148662 -1.3031665257293366
881 3.1003006216158444 1.308791808395888 -0.1799235279103288
875 1.7418883760397839 -1.7314349664489577 2.4025594987832877
662 -0.7722282460088071 5.156030298574874 1.726201377173083
889 -2.5930067712203924 1.2493692303975898 3.648100469461949
898 0.15702699333927095 -0.4284297113415667 -5.112261339748231
893 -2.543299405286122 1.832358820573629 1.0079535515217135
676 1.979663313616654 0.7495055381001557 -0.04513919957795963
720 2.8553657004012267 1.3850493676551991 5.221834650343207
684 -3.571079787236116 8.914499887979384 -0.2176998621386722
690 -1.5308514265009536 -7.007714862755481 0.7342402382873239
697 -11.243966072026485 -4.812692298496228 0.2960761557434705
693 -5.057090562901361 -0.17396907062541286 -3.3419636668880686
702 -0.658868846206883 4.08216128884162 2.3316597165118833
711 -2.178726318659998 -1.2010337799349744 0.4554759456414728
679 0.9513026254303816 0.8769087285482602 0.47040350462672326
680 2.5409812800441753 -4.034196331546856 -1.4211037737256762
688 -7.301130902027335 0.8354975298857107 1.6108972414189076
685 3.6546828235098108 -3.53038965907718 -0.9376290741558724
694 0.863430629779432 0.12527468662558577 2.9715646888913962
699 2.0180125013462016 -4.275295631399667 -4.110634483112048
695 5.950912031063427 -4.61002025832342 1.0234732866485203
706 4.730767843068199 -1.3958018000695978 5.441563770303801
703 -4.570708651429039 0.1473140879441966 -2.9898796586110006
708 3.0343045100860397 1.581600876863986 0.9921796172538769
715 -6.023913796191638 -1.3580403897464055 -4.33267796145576
717 1.0164362380069674 4.1593392273559395 -4.5105794928165475
712 -2.3713691225071547 1.096170511531051 -1.629526765956503
716 -7.905168667380717 1.2732320872809855 4.670450754853862
724 2.994578968510289 -4.963284861389009 -8.060806599315201
721 -3.3950665317524287 -1.9217782457586416 -5.624341122083629
725 4.549009017881484 2.005233448795498 2.233543592147518
726 -3.468474693028533 3.859067405521063 2.6189894888105374
733 0.18991220814877016 3.284985783064422 -0.9649272997212753
730 -5.836574296586507 0.2955968415890241 1.1142099421693121
735 -0.10812457200000404 -4.27665909514509 3.174963232043694
742 -1.5859681322331094 0.30573975392907105 -3.103120648202408
739 2.746495120209876 3.3741719837371766 1.9796198024676992
738 -0.13058077576672045 2.9544632188183386 -2.7152778556036075
744 0.14722930372264945 2.083097713518372 9.63059950622258
740 -2.3266940949629475 -4.045261737974382 0.4354898118560843
751 2.8080611294924323 -1.3951090304527578 -3.3888221478240155
748 -7.436871124338631 -1.5423964903387113 4.511066855133889
753 -5.141341096633232 -2.319406821753366 -2.5389435805098106
760 -1.6476056151269607 -1.3052608334245681 -5.290497538487446
756 -2.0523441039338626 9.780480705600914 -1.2606255006397646
757 -2.194695455738742 2.091715063171661 -2.6226154182123986
762 6.1043573758484655 1.9567860335955785 0.7557325026462091
810 3.031532496502443 0.9434805163407876 6.594436877370857
771 -0.2995603856317884 4.928741777787065 -2.7626802455742774
774 2.4351635579413657 3.098704102988181 -1.745157150165113
734 -2.3552119150805924 0.3142683830101015 -3.285620181142613
783 -2.957338700151571 -2.3177758462394378 1.873119934675903
743 7.433679268445372 -1.4994363331347582 -1.4498763505605263
798 -0.16863725292256082 -0.40726842452702094 -1.7088443694948592
761 -6.529741203232454 4.8839340266884 -2.635292359720969
766 -2.08243062482328 4.233311004819315 3.4093604985444688
769 -1.9277133536602946 -0.5156520337792385 -9.60308108821249
770 -3.5501784989215457 1.9709517946143555 2.78308485367344
778 2.9450626643149236 3.6394771052053976 -4.731486894184354
775 3.34413161375028 1.2871524159963192 -0.41305993446713296
779 2.167928297607729 3.067002653213644 1.708637156658236
780 -4.672495889088259 -4.174781120848756 1.0344124142337485
787 -1.7083993927577128 0.5612338895239789 0.5909842272712384
784 -2.044059665043668 3.8469243233332784 -2.068827614112619
788 -0.48154129130003376 -0.5451264099246887 1.4153629684129743
789 -2.9047316643051224 3.132053907512773 2.2783171256136225
796 5.268264435179866 1.6061374100463337 -3.651296572947566
792 -0.35902297379172265 2.2382764332927034 4.065539753660523
793 -3.616103246136783 1.1431602139098098 -2.745267520298267
797 0.8381345207600845 -2.6282907896800802 -5.081728574572655
794 1.9662542368704787 -3.8017460658054274 1.2196658249315149
805 -4.107523146643038 -2.7309528315842932 -7.357496123622247
802 0.6187098563902628 -1.1532912945357727 -2.7140382346654777
807 5.792031992953053 -4.7820481370712535 4.627986040923487
855 -4.074666804396314 5.660771409362876 7.536035671908849
819 -6.287439989988378 7.297031467407774 -2.739464836809288
823 7.820567847645639 0.857339755615007 -0.6184360494726219
834 3.155370690125832 -4.7368090970001155 -1.0860389635184622
832 -1.7599983206412242 -4.1396964382629635 -2.423199173851351
829 4.736123757020106 0.5027456811764304 -0.2518280443978552
841 -2.3205050261503186 -1.8153749566070185 -5.549511915516724
838 0.6624340897310619 4.071852421908898 3.31507773217664
837 10.105252513651864 0.027641700998173892 0.7472365648496854
839 -0.4509454582634824 -3.027687132888609 1.7128285509805277
850 0.38098274187256387 -4.162605925632582 -1.3502493190779596
852 -1.4939439397878633 -5.839802542485203 1.0680070242594542
814 -2.52369807396495 -2.5374362835803184 -1.4802642067303302
811 -1.6983449046770844 0.2538214016521199 4.229480653175849
816 3.647386573637 -6.962141405416924 -2.4777812851365124
815 -3.289190133206612 -0.26708403993841023 2.5662793265635626
864 -1.3550337278908506 -5.790022141123082 -1.6311972948914115
820 2.2971591529881654 -1.6065854154948924 5.026937307730731
825 0.7664415615353861 3.3585836582023267 -6.954649835400546
833 0.5361923220557522 -4.725754857398261 -2.2002813938767796
842 5.520797245834673 -0.2834032282683868 -0.8882727038313505
847 -1.7043041825937615 0.10507673857233585 -0.571197198712512
856 0.5085534767979291 1.650329269475443 0.34943592866429446
860 -6.505117172151164 5.6932710656521 -7.89787935862529
861 -0.7468412400063152 -4.6875007474448775 4.435800428541662
865 0.11757793348215385 0.6348014544084104 -0.02186183503690905
868 4.5579727427679355 -3.179085830324099 1.758677555535477
869 -4.178547599585898 2.639234261118397 -5.058787615545294
870 3.670948991284144 0.6549691214615779 0.43603588430254187
877 -1.6669317726251218 -7.045957535187727 -5.778194950392018
874 1.465895371136171 -2.672273665601855 -0.0823675256443276
873 8.25496251076913 -5.511490989465939 -4.529793118293561
879 6.025527304407577 0.9121733887126093 5.094740244775985
883 0.05696110948500108 2.643812185710453 -0.8623281113101883
886 -4.551578551088823 3.6615303240557155 -1.4238353191075575
888 -0.08029578743909839 0.8323573268463085 2.82406596106744
882 6.842789530067757 -5.038003136263569 -0.03440551026106696
884 -1.751882087459324 -2.0206840825782044 -3.0347049259576138
895 0.060322261550917494 10.930708045378328 5.238816914976503
892 -6.52097638338242 0.9657985382891383 -8.826290576745588
897 -0.8632933789589853 0.6143343563308757 -3.1928974013947795
900 -3.5432637440612744 4.604219147698977 5.861254641826532
859 1.7875999353286463 0.06486617438909784 2.4760495541794065
903 6.912956729537376 -1.181108998818472 -0.12679429021912528
908 -5.04258636821814 -4.415546717594593 -5.749748403546003
912 -0.1165913946801057 0.0015603535437571996 2.4866193057611325
917 4.356105536814263 1.8822192962900564 7.253003499664943
1096 5.909322553952304 -3.1572706298614337 3.8458955683913416
921 3.194230680340098 -7.499472105666951 3.0090169942966947
926 2.166104495144514 3.313269808287315 -4.161080345509653
920 -3.0663901201489434 -2.0753223568591515 2.5927211536826382
930 1.4048290193208484 -2.2414977722326554 0.2076092867203375
935 1.21767479858904 -1.3186272652323578 7.6047997846763025
929 -2.246202290510139 6.683892297997352 -4.898697904712724
939 0.42318279154388927 -6.0201981697579425 0.2705681753245884
944 0.20820714010211325 2.789806128706815 1.0554258803980305
948 -4.230219022368574 0.3064138569917528 -0.25571294243674236
907 -8.348583828735602 0.4778820540979265 -0.8743506396077478
902 -1.2324562080236419 1.797836763401261 1.1406361832667185
689 0.7399744352783848 4.634447925054748 -3.328417494610113
957 2.360872813459613 4.223240128080096 0.7851881519787249
916 0.4331602740299372 1.6875351708825246 9.46821682452265
911 0.7451317336307421 -6.250549969305434 2.006616280805372
698 -3.9801373138209524 1.264870863056319 1.1122527809100031
925 -0.25356032392105743 1.1622199563451143 -2.8589664109196513
707 -3.7589484322737508 6.136923615054875 1.0876508533073221
975 -1.0471358845490197 -0.6024210290426337 -0.32083088222643685
934 -3.3352267170710617 7.111217995017522 2.222740448780924
940 -7.68970997770059 3.3651184533526863 -3.329362312916097
943 -0.12993060836345235 -2.923799276574746 -0.6211066859058043
938 -1.8287752547600646 -0.10630625399268955 -0.20668297256982496
765 -5.282375398562131 -2.34161942059675 4.6217366371673645
953 1.1657760101710255 -1.638865951348904 1.1638882493983511
947 4.227755922057232 3.3024553019120226 1.9872402061437648
729 1.4389019192693258 3.50094982230061 4.0506566591061395
958 -4.962546635613463 0.8247678206932372 4.624139403470703
962 1.3628266137251142 0.8632420576022981 3.429948920773907
956 0.06182609533230527 0.5384139539906336 5.091323167315703
966 0.4232710182812995 4.64777403494521 5.944551771066882
971 -2.8735272483733634 -3.0513801995795826 -1.3718789344211324
747 4.390184061290811 2.2819511268446417 3.2361297616165485
980 -0.8732829496025609 -0.677892745077756 4.024760176882533
974 1.7148229898278518 -1.2036855463864444 1.8706525279612984
989 3.836753872467742 7.083820284352592 -2.9106851334331183
983 2.536000993036808 -0.6340147583154223 0.06180074732985069
984 -2.5078230980065683 -4.177205275834598 4.235681016220274
998 4.330580697829327 -2.4453050521408044 -3.2292469030346296
993 1.987335669332257 -4.427162070855071 3.231635482767647
952 1.3754166832512882 1.2886955524270651 -1.8397256624380078
961 1.2348397407034974 -4.880224405542842 -0.42899572679599185
1002 7.554110467766819 2.05609910207021 -0.6328233746295295
970 -5.89010104300689 -6.996265091456631 -3.592615809718243
1011 3.480301168878024 -1.5310980273104462 2.217881568870059
1016 -2.819058547266261 1.53222248761273 0.031985028214697224
752 1.9744267880511606 -6.150515137802285 0.5983799945292363
979 1.0765158765012794 0.32851200801382846 7.819733223678642
1020 -5.137705433410637 2.4378950659132426 3.19645263423804
988 7.117360222281874 -4.2065139110802106 1.6546190131003848
1029 1.0039202998242245 -0.7384828493116995 1.4185926977776138
1034 1.0652217922057696 4.346083305272315 0.5985895816459489
997 0.7340141504248762 -0.055661144083558454 -2.2747700926272905
992 1.5893237814497534 -3.2213073381504884 -1.1832736594352342
1007 2.1698765793935975 -9.694825762218015 1.397388061651643
1005 0.11273886392015488 -1.7475373056894705 7.8502853016097545
1006 -4.364113890728228 -3.8665678882797647 1.7672848333132556
1001 -5.892575787174285 -2.767900714617335 0.08028729291583274
1015 -2.215495593504709 -0.34678407625991925 6.0718335459517725
1010 -0.3136165471405724 -8.148161953380967 -1.5676708843251521
801 0.9609311437541898 1.9839572295125325 -3.049104066208307
1019 -5.244478122916596 -2.8048854485968797 -0.7483518127439484
1025 0.9627628396647541 -5.913862571015896 -7.694806547889091
806 9.270088371101101 -2.857744767494262 6.504725997954897
1024 6.329102504191316 5.795770860992191 4.91272449604097
1033 -0.4252335858954408 -4.83987636748865 -6.130083787503701
1028 -0.7728064637225011 2.0384756556777366 4.248741851646291
1037 2.7585808907134255 -0.7606846885334878 1.0347313361282173
1043 2.807101488467462 -1.685565663166458 3.2725465372299944
1038 3.0165085705883086 1.6537066319247802 2.87083543146626
1052 5.084794113680485 6.093795057373668 7.096119821176962
1046 1.8043454153333542 2.829880602192921 0.032389877363281486
1047 -0.7900025607368171 -1.9810915578986457 -1.6996977231858978
828 3.833807263450565 -6.207178848385295 0.39495086485806236
1061 -1.495925038762006 -1.523898311138098 3.7344363406860963
1055 3.3190926081322143 -0.43606186283447346 3.8259640581847494
1056 0.4909822164261258 0.7070370306151521 1.694062392782379
1070 -5.2872212624787185 -3.42607978420233 -5.87579062704425
846 -5.2331462537785285 1.9130264596923527 4.69533505417983
1065 -5.392942914588314 2.516629144704527 3.497952291674981
1064 -5.582862587827164 3.8237578538474066 -3.3370033185608166
1074 1.9294088588529281 0.15336713354169018 -2.9597256599592243
1079 1.2662628678711338 0.538209712257259 7.106077795190407
1088 4.005756430419308 -4.868221606838912 -2.2067631468146813
1083 -5.463384464853944 3.7302019021051107 -6.145687596278058
1042 -4.049402886316011 0.5690359814888561 -2.367816645963441
824 -4.475013494893992 5.6198776064866935 -1.0625411811538554
1092 4.454963376090883 -0.5217461979823369 2.688145774209555
1051 -0.5415096672953149 0.7844789570345233 -2.100498920957803
1101 1.8383471190816123 1.0890115470103159 -1.6708799762602498
1060 6.627885956089838 -1.3207932291453484 1.807846204447508
1110 -0.09287759683017877 1.3976590631789534 1.0314112961599988
1069 3.435813827405272 -2.133413532882601 -0.4171642777342071
851 11.799253831508896 3.597692292951022 2.7220077941602367
1119 -0.6232626739209842 0.2676149084057828 0.10776727982153647
1078 -1.6789776477900917 1.2841388615000873 1.105875497976147
1087 -2.274320658925341 1.9184777404744502 -1.701774670826436
1082 -1.0782841487540193 -1.1980831784498176 0.5216160357400026
1097 -3.5193023600683935 -0.030150996651249824 -2.9321155476484857
1091 1.6548773093198166 0.47614854185233324 -2.4713247501953512
878 4.604076400598893 -4.432728742830616 -1.4542548732824112
1106 -2.452636595988769 1.6444724094620096 1.3004407247126146
1105 1.3706281928277122 -1.8701673689611955 1.3489137841125431
887 -2.4134492268433054 -3.33968752995519 0.02241104939529447
1115 -4.803673767655832 -0.5660294114278935 -6.699523093603941
1114 0.48140923099183003 0.5459360380412317 0.8368212790857693
896 -4.000206338553073 -1.454700244535556 5.503076543002749
891 -1.946595006196696 8.034153503911453 0.41403345081577675
1123 2.4798677823618482 0.987055763832609 3.1739155682426334
1124 5.111889163130804 4.429490888528226 3.5928430944351706
945 1.2298337070712468 1.4440735564794716 1.9148143091554806
906 2.8014008976467046 -5.053427357438096 3.1720945660947555
1085 1.6592478623692142 0.5680986433033446 -3.249873042714793
909 -4.112561010888287 8.076562237820417 3.995279274552626
915 -1.1782756841221456 0.16206080144257204 0.21310345317682636
918 -1.127635540936473 -3.678110428215631 1.1704688900486653
922 1.9910855589219156 4.434714674835136 -7.462709924182525
927 -2.4519477045791507 1.4929639728013473 2.5558538657981886
931 -4.025889075256018 -11.340021985422846 -0.2999600579683253
928 -2.015686158111192 0.2582915241861583 1.0608842683041522
933 -0.1110566523777556 5.294979423203892 -1.799461596432956
936 -2.594816994534196 -5.0145436415177285 3.403616881370923
942 2.6827089117548057 -9.533828076286593 5.826360411595354
904 0.9203677186930862 5.924912086072956 4.153794794228926
901 0.8353497750474547 -0.90137952415825 1.3149333488390325
905 -1.5183190248466711 5.339464239757661 7.320476015760241
913 4.484367873387684 -2.578788184040413 -9.177422560525962
914 3.979255271497941 2.703812008578074 6.339638362111711
910 0.1021890309252003 -0.8699420728804426 5.846206511546813
919 0.4213082770951051 4.524042747924651 5.6042023258854154
924 2.813069713863501 -6.323096313734498 5.321394851098684
923 -0.6629131418150421 3.487294949539404 -1.1420977802212346
932 -3.9822242522691016 2.1576918509924887 -2.6783707490492636
937 -3.769507636373005 -3.1111090361859994 -0.1621275190372643
941 1.7756336085174838 0.8619204279224432 1.0427516626572273
946 -5.5926825072901085 1.151112059008283 -6.631645124086579
951 -1.8969467724747684 10.62514982373575 3.8598061504637964
959 1.6815856886313794 -2.688747808929979 -1.583564544589378
954 -1.888530452099465 -1.5861922700174023 -3.9638946804627238
955 2.4700445956343122 -0.1302093474140314 -1.8898061113485407
960 7.57095874678056 0.8070780751607017 -4.199382855333565
963 4.508253755245239 -12.256392595504503 2.016013753280782
968 0.42000265307757645 0.8706177138755025 2.4324012971474156
964 1.152672534469179 -0.4962411577572142 -4.9541200314308815
969 0.8841988110472722 -8.30923302604297 -3.797308986797089
965 -1.2294023950100208 -3.976507489654462 -2.316987203608861
976 4.548578739135555 2.788372661548624 -1.8870371077586165
972 4.5688991695611065 -3.7172157541284743 8.716867545803419
973 5.26466569352918 -0.8637379029645764 2.9593112371879746
978 -4.473434722509357 -4.670342290475953 -1.55593122408178
985 -5.0326678698789165 1.7762473921763842 2.3224083730989515
982 0.8487440292897409 -0.844873069409957 1.1593537955673638
987 1.53402505039937 -1.9736386743342569 3.2246007239879577
990 -5.623487780748843 -3.019376673469358 -0.5820335054466601
949 -0.32595687759850367 1.5815921712501004 2.5789220485263975
950 -1.036495703230405 -0.19990249915141614 3.549304828871442
999 2.439234485989916 -1.859275359889234 3.625825676472405
967 -3.830530213678279 2.0975986673606113 1.1578203180356579
977 6.772646449454743 -8.809702995854717 -9.727452755021627
1026 1.7037607916755828 3.271931140708697 2.050890530782182
1035 -2.2536747577542915 -3.8785545217282573 9.170491926248419
991 1.357520582277113 2.096094312134286 -1.055581423356702
995 7.025652803738226 3.0394613399201935 5.165473090821755
996 -0.1699341532447945 3.047263644133004 -2.928258168053311
1003 -1.5880088593923236 2.1288551582465662 -0.06284525379341689
1000 2.527857227301303 -5.468752134604316 -2.466568594706453
1004 -2.51459232053901 1.8033683146999213 -3.4878955406997645
1012 3.3211885368166323 1.0464534586144731 2.654409372255459
1009 1.2844261741682705 -0.4426710419146864 4.117442367372517
1014 -2.7651666006329148 -7.2640922148188105 -6.447872361554588
1021 -0.8407652158613957 -0.27560438479984656 -0.021595024961898253
1022 -4.0261400732754975 -1.3226773592867989 -4.860743380374264
1018 2.957919370775887 -2.3930201587489095 0.14009224683774205
1023 -1.360876773814938 5.336526835206532 -0.8196229729373958
1030 4.392346547380963 2.1269275622045023 -6.69571367233396
1032 4.05369748915019 0.0047745764610299885 -1.3098246163396303
1027 -0.8855217847882169 0.6263806933619073 -4.375442182586312
1031 -6.629951795189425 4.496309637867994 -4.437707998746486
994 0.7344757254797535 -0.976318964700963 3.012218583821905
1036 6.062298950826825 -1.8336532624401205 -1.3008881405423844
1041 -1.4796037436866163 -7.061214511816731 7.252885359489966
1048 1.7637478304188252 6.119467330002458 0.7915072441674659
1045 -9.901450696936527 -3.052264693248445 0.4430855759605574
1050 -2.6063836926320914 4.172507762127929 -2.5128600301804283
1057 8.40430793852049 1.894236943257188 -0.7780623724242874
1053 -2.9565446264992454 -0.7130603165727004 -1.6822305084799616
1054 -1.4449642941925156 1.4785865203184778 -0.5686899733349752
1059 0.4582167682805824 -2.582668295030873 -0.6362236430316218
1062 0.8800664947483634 -7.3275223494922415 -1.9460535680592936
1068 0.0136000040286874 3.126692750684986 1.421274020003384
1063 2.2340872155775333 -1.168877228466914 0.3328333222311357
1075 -0.912647162676072 1.1449638010493557 -6.046165918551484
1071 -0.6587421714630365 -0.09043413553387465 0.6756410492652664
1072 2.299111900012261 0.2496220523635408 -1.4526507480611643
1077 -2.224023060243429 3.1468508294677084 -0.2652042001390763
1039 -3.6628453928101083 -2.8788671067918417 9.979678021512576
1073 -0.1262342596515144 1.8746118159488425 -2.025859475063883
1080 -0.7304007736716626 5.397120251755186 -0.8280797382556949
1125 -0.7004895405908678 1.1597225886934304 4.9647792038592025
1040 -3.3902415282441005 -3.40967133303689 1.2118027308597639
1049 -4.539681181021716 -0.4748909082112338 -3.9870790751072263
1098 0.0032746046183371983 2.0855142954198485 -7.029254755808595
1058 1.830917043103109 -3.521189721914963 -1.916507119454381
1104 -1.3312700588558555 0.5431983428887854 -4.352957687538754
1066 5.892592243903209 0.008391536904106829 -0.613930034059416
1067 5.385040030752488 3.575367265900079 0.8894279312709013
1084 -1.7412221809850434 0.07907721032291427 6.53799375360896
1081 0.30167686568123536 -2.5695794253938784 -4.440344626738152
1086 -3.253419106074632 4.424515732207149 -2.9372906805764036
1089 0.034766991012425814 10.285606248684124 1.8543378665249584
1090 3.6485679831604862 -0.8351396960761284 -3.88462214782741
1093 0.34708974671553516 -1.1439820522730566 -2.6470954559044664
1095 0.9643973882613348 2.0588354145739514 1.785241379109912
1094 1.8186457908340754 -0.35394533449335286 0.9435616338004782
1102 -4.674568821217293 2.4829530861980325 2.009202849270211
1099 4.111310689096475 -2.356445496329062 1.854858799475542
1103 -7.673802112819014 0.3207954950572485 0.28615159786032146
1100 2.125065060192759 1.543290208190921 0.06443837855941853
1111 -4.815367600896461 -7.271256500249938 -2.032154121298348
1112 0.5379526506753712 -4.3318369500776726 -6.090132142916424
1108 1.3232144315135492 3.4204379502710482 -6.267016308211137
1113 -4.744725018763135 5.531317229360116 1.2766029559262975
1109 -1.0737658026445174 -0.7597267664049656 -3.3393747943669814
1120 3.7213427636438916 -0.12940229978380274 0.4584937641432974
1117 1.6480330626831952 0.5889931368515298 3.1534938988283256
1122 -5.2499573627890825 -5.486555779210714 -3.180904893575356
1118 -0.6329070968484497 0.0917858548492991 1.0748466408761943
