LAMMPS data file via write_data, version 29 Aug 2024, timestep = 5292, units = metal

1125 atoms
2 atom types

0.48848200423256805 22.435473995767563 xlo xhi
0.5379210912331742 19.544560908766965 ylo yhi
-10.115265817193688 35.916217817194145 zlo zhi
-10.973490841976346 0 0 xy xz yz

Masses

1 28.0855
2 15.9994

Atoms # full

8 1 2 0 2.8024880687645064 1.984565537373221 -7.538278459847514 0 0 0
3 1 1 0 3.422559636352443 1.0754547613069652 -9.07266032011101 0 0 0
17 2 2 0 7.191886467071509 1.9845655373732292 -7.53827845984752 0 0 0
12 2 1 0 7.811958034659456 1.0754547613069694 -9.07266032011102 0 0 0
26 3 2 0 11.581284865378516 1.984565537373206 -7.53827845984754 0 0 0
21 3 1 0 12.201356432966442 1.075454761306955 -9.072660320111016 0 0 0
35 4 2 0 15.970683263685508 1.9845655373732038 -7.538278459847522 0 0 0
30 4 1 0 16.590754831273447 1.0754547613069716 -9.072660320111003 0 0 0
39 5 1 0 20.980153229580452 1.0754547613069674 -9.072660320111 0 0 0
44 5 2 0 20.360081661992506 1.9845655373732283 -7.538278459847502 0 0 0
53 6 2 0 0.6077899003692614 5.785893500879993 -7.538278459847505 0 0 0
48 6 1 0 1.2278614679571689 4.876782724813715 -9.072660320111 0 0 0
7 1 2 0 1.847980237890031 3.9676995770747974 -7.538274250340002 0 0 0
62 7 2 0 4.997188298676249 5.7858935008799826 -7.538278459847515 0 0 0
57 7 1 0 5.617259866264166 4.876782724813722 -9.072660320111016 0 0 0
16 2 2 0 6.237378636197021 3.9676995770747974 -7.538274250340013 0 0 0
71 8 2 0 9.386586696983246 5.785893500879974 -7.538278459847525 0 0 0
66 8 1 0 10.006658264571156 4.876782724813708 -9.072660320111037 0 0 0
25 3 2 0 10.626777034504029 3.9676995770747783 -7.5382742503400175 0 0 0
80 9 2 0 13.775985095290247 5.785893500879967 -7.53827845984751 0 0 0
75 9 1 0 14.396056662878143 4.876782724813724 -9.072660320111025 0 0 0
34 4 2 0 15.016175432811009 3.967699577074774 -7.538274250340015 0 0 0
43 5 2 0 19.405573831118033 3.9676995770748067 -7.538274250339996 0 0 0
84 10 1 0 18.785455061185143 4.876782724813735 -9.072660320111007 0 0 0
89 10 2 0 18.165383493597226 5.785893500879972 -7.538278459847518 0 0 0
98 11 2 0 -1.5869082680260704 9.58722146438672 -7.538278459847509 0 0 0
93 11 1 0 -0.9668367004381072 8.678110688320476 -9.072660320110996 0 0 0
52 6 2 0 -0.3467179305052478 7.769027540581549 -7.538274250340007 0 0 0
61 7 2 0 4.042680467801735 7.769027540581542 -7.538274250340007 0 0 0
102 12 1 0 3.42256169786889 8.678110688320482 -9.072660320111005 0 0 0
107 12 2 0 2.802490130280971 9.587221464386742 -7.538278459847518 0 0 0
116 13 2 0 7.191888528587957 9.587221464386728 -7.538278459847521 0 0 0
70 8 2 0 8.432078866108757 7.769027540581547 -7.538274250340006 0 0 0
111 13 1 0 7.81196009617588 8.678110688320478 -9.072660320111016 0 0 0
120 14 1 0 12.201358494482877 8.678110688320496 -9.072660320111009 0 0 0
79 9 2 0 12.821477264415732 7.769027540581538 -7.538274250340011 0 0 0
125 14 2 0 11.581286926894972 9.587221464386735 -7.538278459847505 0 0 0
134 15 2 0 15.970685325201947 9.587221464386733 -7.538278459847501 0 0 0
129 15 1 0 16.590756892789862 8.67811068832048 -9.072660320111007 0 0 0
88 10 2 0 17.21087566272271 7.769027540581524 -7.5382742503400015 0 0 0
138 16 1 0 -3.1615348688333595 12.479438651827243 -9.072660320110995 0 0 0
97 11 2 0 -2.5414160989005197 11.570355504088312 -7.538274250340004 0 0 0
147 17 1 0 1.22786352947363 12.47943865182724 -9.072660320111002 0 0 0
106 12 2 0 1.8479822994064867 11.570355504088317 -7.53827425034001 0 0 0
156 18 1 0 5.617261927780632 12.47943865182724 -9.072660320110987 0 0 0
115 13 2 0 6.237380697713479 11.570355504088301 -7.538274250340015 0 0 0
165 19 1 0 10.006660326087637 12.479438651827254 -9.072660320110993 0 0 0
124 14 2 0 10.62677909602047 11.570355504088296 -7.538274250339999 0 0 0
174 20 1 0 14.396058724394626 12.479438651827252 -9.07266032011099 0 0 0
133 15 2 0 15.01617749432747 11.570355504088319 -7.538274250340001 0 0 0
183 21 1 0 -5.356233037228627 16.28076661533399 -9.072660320111003 0 0 0
142 16 2 0 -4.736114267295759 15.371683467595078 -7.538274250340006 0 0 0
143 16 2 0 -3.7816064364212916 13.38854942789349 -7.538278459847514 0 0 0
152 17 2 0 0.6077919618857021 13.388549427893501 -7.538278459847511 0 0 0
192 22 1 0 -0.9668346389216337 16.28076661533399 -9.072660320111021 0 0 0
151 17 2 0 -0.3467158689887707 15.371683467595073 -7.538274250340011 0 0 0
160 18 2 0 4.042682529318218 15.371683467595055 -7.538274250340007 0 0 0
201 23 1 0 3.422563759385373 16.280766615334006 -9.072660320111023 0 0 0
161 18 2 0 4.997190360192714 13.388549427893496 -7.538278459847509 0 0 0
170 19 2 0 9.386588758499704 13.388549427893485 -7.538278459847504 0 0 0
169 19 2 0 8.432080927625197 15.371683467595052 -7.538274250340001 0 0 0
210 24 1 0 7.811962157692363 16.280766615334 -9.072660320110987 0 0 0
219 25 1 0 12.201360555999347 16.280766615334016 -9.07266032011101 0 0 0
178 20 2 0 12.821479325932229 15.371683467595084 -7.538274250340002 0 0 0
179 20 2 0 13.775987156806687 13.388549427893496 -7.538278459847502 0 0 0
187 21 2 0 -6.93081243569105 19.173011431101816 -7.538274250340007 0 0 0
188 21 2 0 -5.976304604816543 17.18987739140027 -7.538278459847523 0 0 0
196 22 2 0 -2.541414037384047 19.173011431101816 -7.538274250340024 0 0 0
197 22 2 0 -1.5869062065095423 17.18987739140027 -7.538278459847531 0 0 0
205 23 2 0 1.8479843609229403 19.173011431101816 -7.5382742503400175 0 0 0
206 23 2 0 2.8024921917974432 17.189877391400255 -7.538278459847518 0 0 0
214 24 2 0 6.237382759229953 19.17301143110181 -7.538274250339994 0 0 0
215 24 2 0 7.1918905901044345 17.189877391400238 -7.538278459847515 0 0 0
223 25 2 0 10.626781157536941 19.173011431101823 -7.538274250340006 0 0 0
224 25 2 0 11.581288988411409 17.189877391400255 -7.538278459847504 0 0 0
4 1 2 0 -0.9667957023914066 3.0585815238756955 -4.469513052109834 0 0 0
6 1 2 0 1.2279024381392887 2.893647246150633 -4.469508521078538 0 0 0
2 1 1 0 2.3252498639575077 2.976142284955435 -6.003891447293778 0 0 0
13 2 2 0 3.4226026959155864 3.0585815238756804 -4.469513052109827 0 0 0
15 2 2 0 5.617300836446284 2.8936472461506058 -4.469508521078546 0 0 0
11 2 1 0 6.714648262264505 2.976142284955431 -6.003891447293794 0 0 0
22 3 2 0 7.812001094222587 3.058581523875673 -4.46951305210984 0 0 0
24 3 2 0 10.006699234753276 2.8936472461506195 -4.469508521078562 0 0 0
20 3 1 0 11.1040466605715 2.9761422849554378 -6.003891447293797 0 0 0
31 4 2 0 12.201399492529577 3.0585815238756817 -4.469513052109852 0 0 0
33 4 2 0 14.39609763306029 2.893647246150651 -4.469508521078553 0 0 0
29 4 1 0 15.493445058878509 2.976142284955449 -6.0038914472937925 0 0 0
40 5 2 0 16.590797890836576 3.058581523875711 -4.469513052109842 0 0 0
42 5 2 0 18.785496031367277 2.893647246150644 -4.469508521078547 0 0 0
38 5 1 0 19.882843457185498 2.976142284955466 -6.0038914472937845 0 0 0
49 6 2 0 -3.161493870786688 6.859909487382444 -4.469513052109847 0 0 0
51 6 2 0 -0.9667957302559808 6.694975209657393 -4.46950852107855 0 0 0
47 6 1 0 0.13055169556225776 6.777470248462201 -6.003891447293785 0 0 0
58 7 2 0 1.2279045275203053 6.859909487382444 -4.469513052109836 0 0 0
60 7 2 0 3.4226026680510127 6.694975209657381 -4.469508521078546 0 0 0
56 7 1 0 4.519950093869252 6.777470248462196 -6.003891447293788 0 0 0
67 8 2 0 5.617302925827311 6.8599094873824455 -4.469513052109829 0 0 0
69 8 2 0 7.812001066358019 6.694975209657372 -4.46950852107855 0 0 0
65 8 1 0 8.909348492176251 6.7774702484621905 -6.00389144729379 0 0 0
76 9 2 0 10.00670132413431 6.859909487382433 -4.469513052109837 0 0 0
78 9 2 0 12.201399464665021 6.694975209657379 -4.469508521078549 0 0 0
74 9 1 0 13.298746890483248 6.777470248462192 -6.003891447293777 0 0 0
85 10 2 0 14.396099722441305 6.85990948738246 -4.469513052109834 0 0 0
87 10 2 0 16.590797862972007 6.694975209657407 -4.469508521078554 0 0 0
83 10 1 0 17.68814528879024 6.7774702484622065 -6.003891447293798 0 0 0
94 11 2 0 -5.356192039181974 10.661237450889203 -4.469513052109827 0 0 0
96 11 2 0 -3.1614938986512726 10.496303173164142 -4.469508521078549 0 0 0
92 11 1 0 -2.0641464728330385 10.578798211968948 -6.00389144729378 0 0 0
103 12 2 0 -0.9667936408749668 10.661237450889201 -4.46951305210983 0 0 0
105 12 2 0 1.227904499655733 10.496303173164144 -4.4695085210785495 0 0 0
101 12 1 0 2.325251925473976 10.578798211968945 -6.003891447293776 0 0 0
112 13 2 0 3.422604757432031 10.661237450889198 -4.469513052109836 0 0 0
114 13 2 0 5.61730289796274 10.496303173164144 -4.469508521078541 0 0 0
110 13 1 0 6.71465032378096 10.578798211968945 -6.003891447293778 0 0 0
121 14 2 0 7.812003155739025 10.661237450889208 -4.469513052109827 0 0 0
123 14 2 0 10.006701296269735 10.496303173164131 -4.469508521078554 0 0 0
119 14 1 0 11.104048722087951 10.578798211968943 -6.0038914472937845 0 0 0
130 15 2 0 12.201401554046031 10.66123745088917 -4.4695130521098285 0 0 0
132 15 2 0 14.396099694576733 10.496303173164156 -4.469508521078537 0 0 0
128 15 1 0 15.493447120394967 10.578798211968968 -6.003891447293778 0 0 0
139 16 2 0 -7.550890207577228 14.462565414395943 -4.46951305210982 0 0 0
141 16 2 0 -5.356192067046524 14.297631136670901 -4.469508521078546 0 0 0
137 16 1 0 -4.258844641228288 14.380126175475716 -6.003891447293782 0 0 0
148 17 2 0 -3.1614918092702182 14.462565414395955 -4.469513052109838 0 0 0
150 17 2 0 -0.9667936687395254 14.297631136670896 -4.4695085210785495 0 0 0
146 17 1 0 0.13055375707871308 14.380126175475715 -6.003891447293787 0 0 0
157 18 2 0 1.2279065890367744 14.462565414395963 -4.469513052109838 0 0 0
159 18 2 0 3.4226047295674724 14.2976311366709 -4.469508521078558 0 0 0
155 18 1 0 4.519952155385719 14.38012617547572 -6.003891447293776 0 0 0
166 19 2 0 5.617304987343775 14.462565414395977 -4.469513052109843 0 0 0
168 19 2 0 7.812003127874462 14.297631136670912 -4.4695085210785495 0 0 0
164 19 1 0 8.909350553692724 14.380126175475713 -6.003891447293769 0 0 0
175 20 2 0 10.006703385650765 14.462565414395979 -4.469513052109829 0 0 0
177 20 2 0 12.201401526181483 14.297631136670867 -4.469508521078538 0 0 0
173 20 1 0 13.2987489519997 14.38012617547572 -6.003891447293772 0 0 0
184 21 2 0 -9.7455883759725 18.263893377902722 -4.469513052109826 0 0 0
186 21 2 0 -7.550890235441794 18.09895910017764 -4.469508521078547 0 0 0
182 21 1 0 -6.453542809623544 18.181454138982456 -6.003891447293772 0 0 0
193 22 2 0 -5.356189977665505 18.263893377902697 -4.469513052109838 0 0 0
195 22 2 0 -3.1614918371347955 18.098959100177648 -4.4695085210785575 0 0 0
191 22 1 0 -2.0641444113165437 18.181454138982467 -6.003891447293784 0 0 0
202 23 2 0 -0.966791579358499 18.263893377902708 -4.469513052109849 0 0 0
204 23 2 0 1.2279065611722015 18.098959100177662 -4.469508521078565 0 0 0
200 23 1 0 2.325253986990458 18.18145413898248 -6.003891447293785 0 0 0
211 24 2 0 3.4226068189484953 18.26389337790274 -4.469513052109845 0 0 0
213 24 2 0 5.617304959479205 18.098959100177673 -4.469508521078545 0 0 0
209 24 1 0 6.714652385297451 18.18145413898248 -6.00389144729377 0 0 0
220 25 2 0 7.812005217255494 18.263893377902733 -4.469513052109836 0 0 0
222 25 2 0 10.0067033577862 18.098959100177673 -4.469508521078544 0 0 0
218 25 1 0 11.104050783604437 18.18145413898247 -6.003891447293766 0 0 0
1 1 1 0 0.13055144194533053 2.976095408178072 -2.935129591718254 0 0 0
10 2 1 0 4.519949840252344 2.9760954081780784 -2.9351295917182707 0 0 0
19 3 1 0 8.909348238559328 2.9760954081780735 -2.935129591718269 0 0 0
28 4 1 0 13.298746636866332 2.9760954081780886 -2.935129591718261 0 0 0
37 5 1 0 17.688145035173314 2.9760954081780833 -2.935129591718246 0 0 0
46 6 1 0 -2.064146726449939 6.777423371684833 -2.9351295917182547 0 0 0
55 7 1 0 2.325251671857072 6.777423371684838 -2.9351295917182574 0 0 0
64 8 1 0 6.714650070164072 6.7774233716848595 -2.9351295917182654 0 0 0
73 9 1 0 11.10404846847107 6.777423371684845 -2.935129591718259 0 0 0
82 10 1 0 15.49344686677806 6.777423371684854 -2.935129591718246 0 0 0
91 11 1 0 -4.2588448948452164 10.57875133519162 -2.9351295917182565 0 0 0
100 12 1 0 0.13055350346177763 10.578751335191598 -2.935129591718252 0 0 0
109 13 1 0 4.5199519017687955 10.578751335191594 -2.935129591718261 0 0 0
118 14 1 0 8.90935030007577 10.57875133519162 -2.9351295917182547 0 0 0
127 15 1 0 13.29874869838277 10.578751335191612 -2.935129591718251 0 0 0
136 16 1 0 -6.453543063240469 14.380079298698357 -2.9351295917182663 0 0 0
145 17 1 0 -2.064144664933465 14.38007929869836 -2.935129591718269 0 0 0
154 18 1 0 2.3252537333735286 14.380079298698355 -2.935129591718269 0 0 0
163 19 1 0 6.714652131680542 14.38007929869837 -2.935129591718252 0 0 0
172 20 1 0 11.10405052998753 14.38007929869837 -2.9351295917182485 0 0 0
181 21 1 0 -8.648241231635724 18.181407262205116 -2.9351295917182574 0 0 0
190 22 1 0 -4.25884283332872 18.181407262205102 -2.9351295917182654 0 0 0
199 23 1 0 0.13055556497828447 18.181407262205116 -2.935129591718269 0 0 0
208 24 1 0 4.519953963285254 18.181407262205116 -2.9351295917182423 0 0 0
217 25 1 0 8.90935236159227 18.181407262205123 -2.9351295917182485 0 0 0
9 1 2 0 4.042671011377998 1.9845420336218438 -1.400747979975602 0 0 0
228 26 1 0 3.422559636352433 1.075454761306973 0.13363640676656807 0 0 0
18 2 2 0 8.432069409684996 1.9845420336218464 -1.400747979975618 0 0 0
237 27 1 0 7.811958034659434 1.0754547613069656 0.13363640676656097 0 0 0
27 3 2 0 12.821467807991986 1.984542033621861 -1.4007479799756233 0 0 0
246 28 1 0 12.201356432966433 1.0754547613069718 0.1336364067665592 0 0 0
255 29 1 0 16.590754831273426 1.0754547613069676 0.13363640676656807 0 0 0
36 4 2 0 17.210866206299 1.9845420336218467 -1.4007479799756108 0 0 0
45 5 2 0 21.60026460460599 1.984542033621838 -1.4007479799755984 0 0 0
264 30 1 0 20.980153229580427 1.0754547613069638 0.1336364067665805 0 0 0
5 1 2 0 0.6077826243894123 3.9676738856724048 -1.4007436122916772 0 0 0
273 31 1 0 1.2278614679571498 4.876782724813728 0.13363640676656274 0 0 0
54 6 2 0 1.8479728429827178 5.785869997128593 -1.400747979975602 0 0 0
14 2 2 0 4.99718102269642 3.96767388567242 -1.4007436122916825 0 0 0
63 7 2 0 6.237371241289696 5.785869997128616 -1.4007479799756073 0 0 0
282 32 1 0 5.617259866264162 4.8767827248137365 0.13363640676655741 0 0 0
23 3 2 0 9.386579421003391 3.967673885672433 -1.4007436122916914 0 0 0
291 33 1 0 10.00665826457116 4.876782724813724 0.1336364067665503 0 0 0
72 8 2 0 10.626769639596697 5.7858699971286285 -1.400747979975602 0 0 0
32 4 2 0 13.77597781931039 3.9676738856724416 -1.4007436122916896 0 0 0
81 9 2 0 15.016168037903723 5.78586999712863 -1.4007479799756055 0 0 0
300 34 1 0 14.396056662878165 4.876782724813729 0.13363640676655741 0 0 0
41 5 2 0 18.165376217617414 3.967673885672431 -1.4007436122916808 0 0 0
90 10 2 0 19.405566436210727 5.785869997128605 -1.4007479799756073 0 0 0
309 35 1 0 18.785455061185157 4.876782724813728 0.1336364067665592 0 0 0
50 6 2 0 -1.5869155440058926 7.7690018491792046 -1.4007436122916772 0 0 0
99 11 2 0 -0.3467253254125552 9.58719796063538 -1.400747979975609 0 0 0
318 36 1 0 -0.9668367004381059 8.678110688320487 0.1336364067665663 0 0 0
59 7 2 0 2.8024828543011275 7.769001849179176 -1.4007436122916754 0 0 0
108 12 2 0 4.042673072894425 9.58719796063536 -1.4007479799756108 0 0 0
327 37 1 0 3.4225616978688973 8.67811068832048 0.13363640676655741 0 0 0
68 8 2 0 7.191881252608126 7.769001849179194 -1.4007436122916808 0 0 0
117 13 2 0 8.432071471201425 9.587197960635375 -1.400747979975602 0 0 0
336 38 1 0 7.811960096175905 8.67811068832049 0.13363640676656097 0 0 0
77 9 2 0 11.581279650915125 7.769001849179199 -1.4007436122916772 0 0 0
126 14 2 0 12.821469869508414 9.587197960635402 -1.400747979975602 0 0 0
345 39 1 0 12.201358494482887 8.678110688320489 0.13363640676656985 0 0 0
86 10 2 0 15.970678049222107 7.769001849179203 -1.4007436122916754 0 0 0
354 40 1 0 16.59075689278989 8.678110688320489 0.13363640676655386 0 0 0
135 15 2 0 17.210868267815414 9.58719796063539 -1.400747979975602 0 0 0
95 11 2 0 -3.78161371240115 11.570329812685959 -1.4007436122916772 0 0 0
363 41 1 0 -3.161534868833355 12.479438651827252 0.13363640676656807 0 0 0
104 12 2 0 0.6077846859058648 11.57032981268595 -1.4007436122916914 0 0 0
372 42 1 0 1.2278635294736282 12.47943865182725 0.13363640676655741 0 0 0
113 13 2 0 4.99718308421285 11.570329812685948 -1.400743612291686 0 0 0
381 43 1 0 5.617261927780637 12.479438651827245 0.13363640676656274 0 0 0
122 14 2 0 9.386581482519835 11.570329812685957 -1.4007436122916879 0 0 0
390 44 1 0 10.006660326087625 12.479438651827255 0.1336364067665663 0 0 0
131 15 2 0 13.775979880826805 11.570329812685975 -1.4007436122916737 0 0 0
399 45 1 0 14.396058724394612 12.479438651827257 0.13363640676656807 0 0 0
140 16 2 0 -5.9763118807963975 15.37165777619271 -1.4007436122916879 0 0 0
408 46 1 0 -5.356233037228638 16.280766615333995 0.13363640676656274 0 0 0
144 16 2 0 -2.5414234938078253 13.388525924142135 -1.4007479799756055 0 0 0
149 17 2 0 -1.5869134824894098 15.371657776192707 -1.4007436122916879 0 0 0
417 47 1 0 -0.9668346389216284 16.280766615334013 0.13363640676655386 0 0 0
153 17 2 0 1.847974904499162 13.388525924142137 -1.4007479799756162 0 0 0
158 18 2 0 2.802484915817598 15.371657776192704 -1.400743612291695 0 0 0
426 48 1 0 3.422563759385364 16.28076661533399 0.13363640676656274 0 0 0
162 18 2 0 6.237373302806142 13.388525924142142 -1.400747979975618 0 0 0
167 19 2 0 7.19188331412458 15.371657776192688 -1.4007436122916772 0 0 0
435 49 1 0 7.811962157692341 16.280766615333995 0.13363640676656807 0 0 0
171 19 2 0 10.626771701113118 13.38852592414216 -1.4007479799756055 0 0 0
176 20 2 0 11.581281712431569 15.371657776192714 -1.4007436122916808 0 0 0
444 50 1 0 12.201360555999361 16.280766615334006 0.13363640676657518 0 0 0
180 20 2 0 15.016170099420155 13.388525924142142 -1.400747979975602 0 0 0
185 21 2 0 -8.171010049191665 19.17298573969944 -1.4007436122916683 0 0 0
189 21 2 0 -4.7361216622030975 17.18985388764889 -1.4007479799756144 0 0 0
194 22 2 0 -3.7816116508846513 19.17298573969946 -1.4007436122916896 0 0 0
198 22 2 0 -0.34672326389608565 17.189853887648894 -1.4007479799756233 0 0 0
203 23 2 0 0.6077867474223476 19.172985739699463 -1.4007436122916985 0 0 0
207 23 2 0 4.042675134410904 17.189853887648894 -1.4007479799756144 0 0 0
212 24 2 0 4.99718514572933 19.172985739699456 -1.4007436122916808 0 0 0
216 24 2 0 8.43207353271788 17.189853887648898 -1.4007479799755984 0 0 0
221 25 2 0 9.386583544036336 19.172985739699442 -1.4007436122916666 0 0 0
225 25 2 0 12.82147193102491 17.189853887648894 -1.400747979975593 0 0 0
233 26 2 0 2.8024880687645095 1.9845655373732072 1.6680182670300567 0 0 0
227 26 1 0 2.3252498639574934 2.9761422849554253 3.202405279583772 0 0 0
242 27 2 0 7.191886467071512 1.9845655373732098 1.6680182670300407 0 0 0
236 27 1 0 6.714648262264496 2.9761422849554346 3.202405279583786 0 0 0
251 28 2 0 11.58128486537851 1.9845655373732014 1.668018267030046 0 0 0
245 28 1 0 11.104046660571505 2.9761422849554284 3.202405279583779 0 0 0
260 29 2 0 15.970683263685492 1.9845655373732127 1.6680182670300514 0 0 0
254 29 1 0 15.493445058878505 2.9761422849554293 3.2024052795837683 0 0 0
269 30 2 0 20.360081661992478 1.9845655373732 1.6680182670300585 0 0 0
263 30 1 0 19.882843457185484 2.9761422849554284 3.202405279583779 0 0 0
278 31 2 0 0.6077899003692152 5.7858935008799595 1.6680182670300514 0 0 0
272 31 1 0 0.13055169556223556 6.777470248462189 3.2024052795837967 0 0 0
232 26 2 0 1.8479802378900132 3.967699577074773 1.6680224765375673 0 0 0
287 32 2 0 4.997188298676235 5.785893500879963 1.6680182670300514 0 0 0
241 27 2 0 6.2373786361970405 3.9676995770747983 1.668022476537553 0 0 0
281 32 1 0 4.519950093869229 6.777470248462183 3.202405279583779 0 0 0
296 33 2 0 9.386586696983263 5.7858935008799826 1.6680182670300567 0 0 0
290 33 1 0 8.909348492176239 6.777470248462183 3.2024052795837754 0 0 0
250 28 2 0 10.626777034504029 3.9676995770747903 1.6680224765375602 0 0 0
299 34 1 0 13.298746890483244 6.7774702484621905 3.202405279583779 0 0 0
305 34 2 0 13.775985095290235 5.785893500879993 1.6680182670300532 0 0 0
259 29 2 0 15.016175432811007 3.967699577074784 1.6680224765375655 0 0 0
268 30 2 0 19.405573831117987 3.9676995770747814 1.6680224765375709 0 0 0
314 35 2 0 18.165383493597226 5.785893500879984 1.6680182670300514 0 0 0
308 35 1 0 17.688145288790235 6.777470248462194 3.202405279583772 0 0 0
323 36 2 0 -1.5869082680260065 9.587221464386758 1.668018267030062 0 0 0
277 31 2 0 -0.3467179305052398 7.769027540581556 1.6680224765375602 0 0 0
286 32 2 0 4.042680467801765 7.769027540581545 1.668022476537562 0 0 0
332 37 2 0 2.8024901302809826 9.587221464386735 1.6680182670300514 0 0 0
341 38 2 0 7.191888528587979 9.587221464386747 1.6680182670300514 0 0 0
295 33 2 0 8.432078866108789 7.769027540581559 1.6680224765375602 0 0 0
304 34 2 0 12.82147726441577 7.7690275405815665 1.6680224765375655 0 0 0
350 39 2 0 11.581286926895002 9.587221464386761 1.6680182670300567 0 0 0
359 40 2 0 15.970685325201979 9.587221464386767 1.6680182670300656 0 0 0
313 35 2 0 17.210875662722763 7.769027540581577 1.668022476537562 0 0 0
322 36 2 0 -2.5414160989005006 11.570355504088324 1.6680224765375726 0 0 0
317 36 1 0 -2.064146472833028 10.57879821196895 3.202405279583779 0 0 0
331 37 2 0 1.8479822994064894 11.570355504088313 1.6680224765375584 0 0 0
326 37 1 0 2.3252519254739688 10.578798211968959 3.2024052795837736 0 0 0
340 38 2 0 6.237380697713522 11.570355504088317 1.6680224765375584 0 0 0
335 38 1 0 6.714650323780965 10.57879821196895 3.2024052795837683 0 0 0
349 39 2 0 10.626779096020512 11.570355504088337 1.6680224765375655 0 0 0
344 39 1 0 11.104048722087972 10.578798211968959 3.202405279583786 0 0 0
358 40 2 0 15.016177494327493 11.570355504088335 1.6680224765375726 0 0 0
353 40 1 0 15.493447120394963 10.57879821196894 3.2024052795837736 0 0 0
367 41 2 0 -4.736114267295759 15.371683467595078 1.668022476537562 0 0 0
368 41 2 0 -3.781606436421272 13.388549427893505 1.6680182670300638 0 0 0
362 41 1 0 -4.258844641228286 14.380126175475706 3.2024052795837914 0 0 0
377 42 2 0 0.6077919618857252 13.388549427893501 1.6680182670300479 0 0 0
376 42 2 0 -0.3467158689887725 15.371683467595066 1.6680224765375495 0 0 0
371 42 1 0 0.13055375707870598 14.380126175475707 3.2024052795837736 0 0 0
385 43 2 0 4.042682529318193 15.371683467595044 1.6680224765375584 0 0 0
386 43 2 0 4.997190360192718 13.388549427893492 1.6680182670300514 0 0 0
380 43 1 0 4.519952155385707 14.38012617547571 3.2024052795837683 0 0 0
395 44 2 0 9.38658875849973 13.388549427893524 1.6680182670300638 0 0 0
394 44 2 0 8.432080927625194 15.371683467595055 1.668022476537562 0 0 0
389 44 1 0 8.90935055369272 14.380126175475715 3.2024052795837683 0 0 0
403 45 2 0 12.821479325932218 15.371683467595066 1.6680224765375709 0 0 0
398 45 1 0 13.298748951999706 14.38012617547571 3.202405279583786 0 0 0
404 45 2 0 13.775987156806728 13.38854942789353 1.6680182670300656 0 0 0
412 46 2 0 -6.930812435691056 19.173011431101813 1.6680224765375673 0 0 0
413 46 2 0 -5.9763046048165585 17.189877391400255 1.6680182670300479 0 0 0
407 46 1 0 -6.453542809623558 18.18145413898246 3.2024052795837843 0 0 0
421 47 2 0 -2.541414037384057 19.173011431101806 1.6680224765375549 0 0 0
422 47 2 0 -1.5869062065095432 17.189877391400266 1.6680182670300425 0 0 0
416 47 1 0 -2.0641444113165632 18.181454138982467 3.2024052795837754 0 0 0
430 48 2 0 1.8479843609229314 19.17301143110181 1.6680224765375495 0 0 0
431 48 2 0 2.8024921917974432 17.189877391400252 1.6680182670300407 0 0 0
425 48 1 0 2.3252539869904365 18.18145413898247 3.2024052795837683 0 0 0
439 49 2 0 6.237382759229907 19.173011431101806 1.6680224765375726 0 0 0
440 49 2 0 7.191890590104403 17.189877391400238 1.6680182670300567 0 0 0
434 49 1 0 6.71465238529743 18.18145413898246 3.2024052795837754 0 0 0
448 50 2 0 10.626781157536929 19.17301143110182 1.6680224765375797 0 0 0
449 50 2 0 11.581288988411416 17.18987739140026 1.6680182670300638 0 0 0
443 50 1 0 11.104050783604439 18.181454138982474 3.202405279583786 0 0 0
229 26 2 0 -0.9667957023914396 3.058581523875691 4.736783674767725 0 0 0
231 26 2 0 1.2279024381392696 2.8936472461506173 4.736788205799021 0 0 0
226 26 1 0 0.13055144194531187 2.9760954081780904 6.27116713515931 0 0 0
238 27 2 0 3.4226026959155664 3.0585815238756657 4.736783674767718 0 0 0
240 27 2 0 5.617300836446267 2.893647246150611 4.736788205799003 0 0 0
235 27 1 0 4.5199498402523055 2.9760954081780775 6.271167135159313 0 0 0
247 28 2 0 7.812001094222562 3.0585815238756626 4.73678367476772 0 0 0
249 28 2 0 10.006699234753274 2.8936472461506137 4.736788205799016 0 0 0
244 28 1 0 8.909348238559305 2.9760954081780833 6.271167135159324 0 0 0
256 29 2 0 12.201399492529559 3.0585815238756573 4.736783674767732 0 0 0
253 29 1 0 13.29874663686631 2.976095408178086 6.271167135159331 0 0 0
258 29 2 0 14.396097633060265 2.893647246150624 4.736788205799023 0 0 0
265 30 2 0 16.590797890836566 3.05858152387567 4.736783674767725 0 0 0
267 30 2 0 18.78549603136726 2.8936472461506346 4.736788205799016 0 0 0
262 30 1 0 17.688145035173296 2.9760954081780766 6.271167135159324 0 0 0
271 31 1 0 -2.064146726449955 6.777423371684833 6.271167135159327 0 0 0
274 31 2 0 -3.1614938707867024 6.85990948738243 4.736783674767736 0 0 0
276 31 2 0 -0.966795730255995 6.694975209657386 4.736788205799021 0 0 0
283 32 2 0 1.2279045275202916 6.859909487382438 4.7367836747677305 0 0 0
285 32 2 0 3.422602668051 6.694975209657363 4.736788205799016 0 0 0
280 32 1 0 2.3252516718570555 6.777423371684847 6.27116713515931 0 0 0
289 33 1 0 6.714650070164043 6.777423371684847 6.271167135159324 0 0 0
292 33 2 0 5.617302925827301 6.859909487382408 4.73678367476772 0 0 0
294 33 2 0 7.812001066357996 6.694975209657356 4.736788205799003 0 0 0
301 34 2 0 10.0067013241343 6.859909487382396 4.7367836747677305 0 0 0
303 34 2 0 12.201399464665009 6.694975209657349 4.736788205799023 0 0 0
298 34 1 0 11.10404846847104 6.777423371684842 6.271167135159331 0 0 0
307 35 1 0 15.493446866778052 6.7774233716848435 6.271167135159317 0 0 0
310 35 2 0 14.396099722441292 6.859909487382417 4.736783674767743 0 0 0
312 35 2 0 16.59079786297199 6.694975209657363 4.736788205799032 0 0 0
319 36 2 0 -5.3561920391819635 10.661237450889162 4.736783674767732 0 0 0
321 36 2 0 -3.1614938986512473 10.496303173164124 4.736788205799019 0 0 0
316 36 1 0 -4.2588448948452085 10.5787513351916 6.271167135159324 0 0 0
328 37 2 0 -0.9667936408749632 10.661237450889175 4.736783674767736 0 0 0
330 37 2 0 1.2279044996557462 10.496303173164135 4.736788205799021 0 0 0
325 37 1 0 0.1305535034617803 10.578751335191585 6.2711671351592955 0 0 0
337 38 2 0 3.4226047574320435 10.66123745088921 4.7367836747677305 0 0 0
339 38 2 0 5.617302897962732 10.496303173164108 4.7367882057990105 0 0 0
334 38 1 0 4.519951901768776 10.578751335191601 6.271167135159299 0 0 0
346 39 2 0 7.812003155739039 10.661237450889175 4.7367836747677305 0 0 0
348 39 2 0 10.006701296269744 10.496303173164097 4.736788205799021 0 0 0
343 39 1 0 8.90935030007577 10.578751335191612 6.271167135159331 0 0 0
355 40 2 0 12.201401554046031 10.661237450889177 4.7367836747677305 0 0 0
352 40 1 0 13.298748698382777 10.578751335191612 6.271167135159331 0 0 0
357 40 2 0 14.396099694576739 10.496303173164119 4.736788205799016 0 0 0
364 41 2 0 -7.550890207577237 14.462565414395957 4.73678367476775 0 0 0
366 41 2 0 -5.356192067046533 14.29763113667086 4.7367882057990265 0 0 0
361 41 1 0 -6.45354306324048 14.380079298698371 6.271167135159313 0 0 0
373 42 2 0 -3.1614918092702378 14.462565414395945 4.736783674767732 0 0 0
370 42 1 0 -2.064144664933479 14.38007929869835 6.271167135159317 0 0 0
375 42 2 0 -0.966793668739529 14.297631136670876 4.736788205799014 0 0 0
382 43 2 0 1.2279065890367566 14.462565414395966 4.736783674767732 0 0 0
384 43 2 0 3.4226047295674653 14.297631136670912 4.7367882057990105 0 0 0
379 43 1 0 2.325253733373518 14.380079298698346 6.271167135159288 0 0 0
391 44 2 0 5.617304987343755 14.462565414395963 4.736783674767725 0 0 0
388 44 1 0 6.714652131680519 14.380079298698357 6.271167135159317 0 0 0
393 44 2 0 7.8120031278744655 14.297631136670871 4.736788205799003 0 0 0
400 45 2 0 10.006703385650766 14.462565414395963 4.736783674767727 0 0 0
402 45 2 0 12.201401526181469 14.297631136670871 4.736788205799019 0 0 0
397 45 1 0 11.104050529987509 14.380079298698368 6.27116713515931 0 0 0
409 46 2 0 -9.745588375972504 18.263893377902708 4.7367836747677305 0 0 0
406 46 1 0 -8.648241231635756 18.18140726220512 6.271167135159313 0 0 0
411 46 2 0 -7.550890235441799 18.09895910017765 4.736788205799021 0 0 0
418 47 2 0 -5.356189977665507 18.2638933779027 4.736783674767725 0 0 0
420 47 2 0 -3.1614918371347973 18.098959100177638 4.736788205799016 0 0 0
415 47 1 0 -4.25884283332874 18.1814072622051 6.271167135159317 0 0 0
427 48 2 0 -0.9667915793585061 18.263893377902704 4.736783674767725 0 0 0
429 48 2 0 1.2279065611721962 18.09895910017766 4.736788205799009 0 0 0
424 48 1 0 0.13055556497825072 18.181407262205106 6.27116713515931 0 0 0
436 49 2 0 3.422606818948483 18.26389337790272 4.7367836747677305 0 0 0
438 49 2 0 5.6173049594791875 18.09895910017766 4.736788205799021 0 0 0
433 49 1 0 4.519953963285238 18.181407262205102 6.271167135159324 0 0 0
445 50 2 0 7.812005217255485 18.263893377902722 4.736783674767723 0 0 0
447 50 2 0 10.006703357786188 18.09895910017766 4.736788205799023 0 0 0
442 50 1 0 8.909352361592244 18.18140726220511 6.271167135159306 0 0 0
234 26 2 0 4.042671011377979 1.9845420336218493 7.805548746901952 0 0 0
453 51 1 0 3.422559636352435 1.0754547613069614 9.339933133644141 0 0 0
243 27 2 0 8.432069409684953 1.9845420336218542 7.805548746901952 0 0 0
462 52 1 0 7.811958034659421 1.0754547613069732 9.339933133644145 0 0 0
252 28 2 0 12.821467807991956 1.9845420336218527 7.805548746901955 0 0 0
471 53 1 0 12.201356432966412 1.0754547613069663 9.339933133644156 0 0 0
480 54 1 0 16.590754831273415 1.0754547613069596 9.339933133644148 0 0 0
261 29 2 0 17.210866206298956 1.9845420336218595 7.805548746901959 0 0 0
270 30 2 0 21.600264604605957 1.984542033621858 7.805548746901952 0 0 0
489 55 1 0 20.98015322958042 1.0754547613069678 9.339933133644138 0 0 0
230 26 2 0 0.6077826243893799 3.9676738856724283 7.8055531145858765 0 0 0
498 56 1 0 1.2278614679571511 4.876782724813722 9.339933133644141 0 0 0
279 31 2 0 1.847972842982677 5.785869997128614 7.805548746901955 0 0 0
239 27 2 0 4.997181022696368 3.9676738856724327 7.805553114585869 0 0 0
288 32 2 0 6.237371241289665 5.785869997128634 7.805548746901952 0 0 0
507 57 1 0 5.617259866264143 4.876782724813729 9.339933133644145 0 0 0
248 28 2 0 9.386579421003352 3.9676738856724474 7.80555311458588 0 0 0
516 58 1 0 10.006658264571161 4.876782724813722 9.33993313364416 0 0 0
297 33 2 0 10.626769639596661 5.785869997128621 7.805548746901955 0 0 0
257 29 2 0 13.775977819310354 3.9676738856724323 7.805553114585891 0 0 0
306 34 2 0 15.01616803790366 5.785869997128609 7.805548746901959 0 0 0
525 59 1 0 14.396056662878152 4.876782724813728 9.339933133644138 0 0 0
266 30 2 0 18.165376217617368 3.967673885672439 7.80555311458588 0 0 0
315 35 2 0 19.405566436210684 5.785869997128616 7.805548746901959 0 0 0
534 60 1 0 18.785455061185154 4.876782724813712 9.339933133644138 0 0 0
275 31 2 0 -1.5869155440058926 7.769001849179189 7.8055531145858765 0 0 0
324 36 2 0 -0.34672532541256407 9.587197960635363 7.805548746901955 0 0 0
543 61 1 0 -0.9668367004381028 8.678110688320475 9.339933133644138 0 0 0
284 32 2 0 2.8024828543011266 7.7690018491791815 7.80555311458588 0 0 0
333 37 2 0 4.042673072894404 9.587197960635377 7.805548746901962 0 0 0
552 62 1 0 3.4225616978688866 8.678110688320494 9.33993313364413 0 0 0
293 33 2 0 7.191881252608092 7.769001849179199 7.805553114585869 0 0 0
342 38 2 0 8.432071471201377 9.587197960635395 7.805548746901955 0 0 0
561 63 1 0 7.811960096175894 8.678110688320475 9.339933133644166 0 0 0
302 34 2 0 11.58127965091507 7.76900184917921 7.805553114585866 0 0 0
351 39 2 0 12.821469869508386 9.587197960635397 7.805548746901952 0 0 0
570 64 1 0 12.201358494482882 8.678110688320494 9.339933133644156 0 0 0
311 35 2 0 15.97067804922208 7.7690018491792046 7.8055531145858765 0 0 0
579 65 1 0 16.590756892789894 8.678110688320487 9.339933133644138 0 0 0
360 40 2 0 17.2108682678154 9.587197960635365 7.805548746901959 0 0 0
320 36 2 0 -3.781613712401168 11.570329812685944 7.805553114585869 0 0 0
588 66 1 0 -3.161534868833377 12.479438651827232 9.339933133644138 0 0 0
329 37 2 0 0.6077846859058692 11.570329812685934 7.8055531145858765 0 0 0
597 67 1 0 1.227863529473614 12.479438651827241 9.339933133644138 0 0 0
338 38 2 0 4.9971830842128435 11.570329812685944 7.805553114585884 0 0 0
606 68 1 0 5.617261927780627 12.479438651827232 9.339933133644141 0 0 0
347 39 2 0 9.386581482519832 11.570329812685959 7.805553114585873 0 0 0
615 69 1 0 10.006660326087625 12.47943865182725 9.339933133644124 0 0 0
356 40 2 0 13.775979880826823 11.57032981268596 7.805553114585891 0 0 0
624 70 1 0 14.396058724394608 12.47943865182724 9.339933133644145 0 0 0
365 41 2 0 -5.976311880796416 15.371657776192704 7.805553114585884 0 0 0
633 71 1 0 -5.356233037228631 16.280766615334002 9.33993313364416 0 0 0
369 41 2 0 -2.541423493807827 13.388525924142112 7.805548746901952 0 0 0
374 42 2 0 -1.5869134824894 15.37165777619268 7.805553114585884 0 0 0
642 72 1 0 -0.9668346389216426 16.280766615334006 9.339933133644138 0 0 0
378 42 2 0 1.8479749044991531 13.388525924142122 7.805548746901945 0 0 0
383 43 2 0 2.8024849158175944 15.371657776192698 7.805553114585873 0 0 0
651 73 1 0 3.4225637593853393 16.280766615334 9.339933133644141 0 0 0
387 43 2 0 6.237373302806136 13.388525924142126 7.805548746901955 0 0 0
392 44 2 0 7.191883314124575 15.371657776192691 7.805553114585862 0 0 0
660 74 1 0 7.811962157692348 16.28076661533401 9.339933133644148 0 0 0
396 44 2 0 10.626771701113123 13.388525924142131 7.805548746901959 0 0 0
401 45 2 0 11.581281712431569 15.371657776192698 7.8055531145858765 0 0 0
669 75 1 0 12.201360555999353 16.280766615334 9.33993313364417 0 0 0
405 45 2 0 15.016170099420126 13.388525924142142 7.8055487469019695 0 0 0
410 46 2 0 -8.171010049191684 19.172985739699474 7.805553114585884 0 0 0
414 46 2 0 -4.736121662203085 17.189853887648873 7.805548746901959 0 0 0
419 47 2 0 -3.78161165088467 19.172985739699463 7.80555311458588 0 0 0
423 47 2 0 -0.34672326389609986 17.18985388764887 7.805548746901955 0 0 0
428 48 2 0 0.6077867474222979 19.172985739699453 7.80555311458588 0 0 0
432 48 2 0 4.042675134410888 17.18985388764888 7.805548746901955 0 0 0
437 49 2 0 4.997185145729296 19.17298573969945 7.8055531145858765 0 0 0
441 49 2 0 8.432073532717881 17.189853887648884 7.805548746901952 0 0 0
446 50 2 0 9.386583544036304 19.172985739699467 7.8055531145858765 0 0 0
450 50 2 0 12.82147193102489 17.18985388764889 7.805548746901952 0 0 0
458 51 2 0 2.80248806876452 1.9845655373732305 10.874314993907607 0 0 0
452 51 1 0 2.325249863957522 2.9761422849554373 12.408702006461347 0 0 0
467 52 2 0 7.191886467071512 1.9845655373732165 10.874314993907607 0 0 0
461 52 1 0 6.714648262264517 2.9761422849554497 12.408702006461333 0 0 0
476 53 2 0 11.581284865378493 1.9845655373732214 10.874314993907618 0 0 0
470 53 1 0 11.104046660571512 2.9761422849554378 12.408702006461358 0 0 0
485 54 2 0 15.970683263685508 1.9845655373732092 10.874314993907618 0 0 0
479 54 1 0 15.493445058878505 2.9761422849554426 12.408702006461347 0 0 0
494 55 2 0 20.360081661992496 1.984565537373219 10.874314993907618 0 0 0
488 55 1 0 19.882843457185505 2.976142284955438 12.40870200646133 0 0 0
503 56 2 0 0.607789900369245 5.785893500879993 10.874314993907618 0 0 0
497 56 1 0 0.13055169556224444 6.7774702484621905 12.40870200646134 0 0 0
457 51 2 0 1.8479802378900305 3.9676995770748036 10.874319203415116 0 0 0
512 57 2 0 4.997188298676259 5.785893500879986 10.874314993907618 0 0 0
466 52 2 0 6.237378636197041 3.9676995770748076 10.874319203415116 0 0 0
506 57 1 0 4.51995009386926 6.777470248462205 12.40870200646134 0 0 0
521 58 2 0 9.386586696983262 5.7858935008799985 10.874314993907618 0 0 0
515 58 1 0 8.909348492176244 6.777470248462208 12.408702006461358 0 0 0
475 53 2 0 10.626777034504025 3.967699577074796 10.874319203415126 0 0 0
524 59 1 0 13.298746890483251 6.77747024846221 12.408702006461358 0 0 0
530 59 2 0 13.775985095290244 5.785893500879995 10.874314993907607 0 0 0
484 54 2 0 15.016175432811012 3.967699577074785 10.874319203415126 0 0 0
493 55 2 0 19.405573831118023 3.967699577074788 10.874319203415126 0 0 0
539 60 2 0 18.16538349359722 5.78589350087999 10.874314993907618 0 0 0
533 60 1 0 17.688145288790228 6.777470248462196 12.40870200646134 0 0 0
548 61 2 0 -1.5869082680260362 9.587221464386744 10.87431499390761 0 0 0
502 56 2 0 -0.3467179305052487 7.769027540581552 10.874319203415116 0 0 0
511 57 2 0 4.042680467801771 7.769027540581563 10.874319203415116 0 0 0
557 62 2 0 2.802490130280972 9.587221464386747 10.87431499390761 0 0 0
566 63 2 0 7.19188852858799 9.58722146438676 10.874314993907614 0 0 0
520 58 2 0 8.432078866108785 7.7690275405815825 10.874319203415126 0 0 0
529 59 2 0 12.82147726441577 7.769027540581563 10.874319203415109 0 0 0
575 64 2 0 11.581286926895004 9.58722146438677 10.874314993907607 0 0 0
584 65 2 0 15.970685325201982 9.58722146438676 10.874314993907628 0 0 0
538 60 2 0 17.21087566272274 7.769027540581552 10.874319203415116 0 0 0
547 61 2 0 -2.541416098900529 11.570355504088303 10.87431920341512 0 0 0
542 61 1 0 -2.0641464728330154 10.578798211968959 12.408702006461347 0 0 0
556 62 2 0 1.8479822994064778 11.570355504088317 10.874319203415126 0 0 0
551 62 1 0 2.3252519254739723 10.57879821196897 12.40870200646134 0 0 0
565 63 2 0 6.237380697713513 11.570355504088322 10.874319203415116 0 0 0
560 63 1 0 6.714650323780991 10.578798211968964 12.408702006461347 0 0 0
574 64 2 0 10.626779096020512 11.570355504088337 10.874319203415126 0 0 0
569 64 1 0 11.104048722087988 10.578798211968982 12.408702006461358 0 0 0
583 65 2 0 15.016177494327463 11.570355504088317 10.874319203415133 0 0 0
578 65 1 0 15.493447120394972 10.578798211968957 12.408702006461347 0 0 0
592 66 2 0 -4.736114267295782 15.371683467595066 10.87431920341512 0 0 0
593 66 2 0 -3.781606436421311 13.3885494278935 10.874314993907618 0 0 0
587 66 1 0 -4.25884464122828 14.380126175475695 12.408702006461358 0 0 0
602 67 2 0 0.6077919618856852 13.388549427893496 10.874314993907618 0 0 0
601 67 2 0 -0.34671586898879825 15.371683467595053 10.87431920341513 0 0 0
596 67 1 0 0.13055375707872197 14.380126175475718 12.40870200646134 0 0 0
610 68 2 0 4.042682529318191 15.371683467595052 10.87431920341512 0 0 0
611 68 2 0 4.997190360192702 13.388549427893501 10.87431499390761 0 0 0
605 68 1 0 4.519952155385725 14.380126175475716 12.408702006461361 0 0 0
620 69 2 0 9.386588758499723 13.388549427893524 10.874314993907628 0 0 0
619 69 2 0 8.432080927625195 15.371683467595064 10.87431920341512 0 0 0
614 69 1 0 8.909350553692716 14.38012617547573 12.408702006461333 0 0 0
628 70 2 0 12.821479325932245 15.371683467595087 10.874319203415126 0 0 0
623 70 1 0 13.29874895199972 14.380126175475729 12.408702006461368 0 0 0
629 70 2 0 13.77598715680673 13.388549427893528 10.874314993907618 0 0 0
637 71 2 0 -6.930812435691053 19.173011431101816 10.87431920341512 0 0 0
638 71 2 0 -5.976304604816527 17.18987739140027 10.87431499390761 0 0 0
632 71 1 0 -6.4535428096235385 18.181454138982474 12.408702006461347 0 0 0
646 72 2 0 -2.5414140373840683 19.17301143110182 10.874319203415126 0 0 0
647 72 2 0 -1.586906206509561 17.189877391400255 10.874314993907614 0 0 0
641 72 1 0 -2.06414441131655 18.18145413898249 12.408702006461347 0 0 0
655 73 2 0 1.847984360922935 19.173011431101813 10.874319203415126 0 0 0
656 73 2 0 2.802492191797415 17.18987739140025 10.87431499390761 0 0 0
650 73 1 0 2.3252539869904454 18.18145413898248 12.408702006461347 0 0 0
664 74 2 0 6.23738275922993 19.173011431101823 10.87431920341512 0 0 0
665 74 2 0 7.191890590104406 17.18987739140024 10.87431499390761 0 0 0
659 74 1 0 6.714652385297437 18.18145413898248 12.408702006461347 0 0 0
673 75 2 0 10.626781157536941 19.173011431101834 10.874319203415126 0 0 0
674 75 2 0 11.58128898841142 17.189877391400252 10.87431499390761 0 0 0
668 75 1 0 11.104050783604448 18.18145413898248 12.40870200646135 0 0 0
454 51 2 0 -0.9667957023914163 3.0585815238757026 13.943080401645297 0 0 0
456 51 2 0 1.227902438139283 2.8936472461506426 13.943084932676573 0 0 0
451 51 1 0 0.13055144194533363 2.97609540817807 15.477463862036839 0 0 0
463 52 2 0 3.4226026959155798 3.0585815238756964 13.943080401645283 0 0 0
465 52 2 0 5.61730083644629 2.893647246150636 13.943084932676594 0 0 0
460 52 1 0 4.519949840252322 2.976095408178073 15.477463862036842 0 0 0
472 53 2 0 7.812001094222585 3.0585815238757053 13.943080401645314 0 0 0
474 53 2 0 10.006699234753292 2.8936472461506484 13.943084932676598 0 0 0
469 53 1 0 8.909348238559334 2.9760954081780957 15.47746386203685 0 0 0
481 54 2 0 12.201399492529584 3.0585815238756826 13.943080401645297 0 0 0
478 54 1 0 13.298746636866317 2.9760954081780873 15.477463862036874 0 0 0
483 54 2 0 14.39609763306029 2.893647246150647 13.943084932676584 0 0 0
490 55 2 0 16.59079789083657 3.0585815238756804 13.943080401645307 0 0 0
492 55 2 0 18.785496031367288 2.893647246150634 13.943084932676605 0 0 0
487 55 1 0 17.688145035173335 2.9760954081780606 15.477463862036853 0 0 0
496 56 1 0 -2.0641467264499225 6.777423371684822 15.477463862036839 0 0 0
499 56 2 0 -3.161493870786682 6.859909487382438 13.943080401645293 0 0 0
501 56 2 0 -0.9667957302559825 6.694975209657402 13.943084932676573 0 0 0
508 57 2 0 1.2279045275203142 6.859909487382465 13.943080401645293 0 0 0
510 57 2 0 3.4226026680510238 6.694975209657395 13.943084932676584 0 0 0
505 57 1 0 2.3252516718570697 6.777423371684831 15.477463862036842 0 0 0
514 58 1 0 6.714650070164061 6.777423371684836 15.477463862036839 0 0 0
517 58 2 0 5.617302925827313 6.859909487382458 13.943080401645307 0 0 0
519 58 2 0 7.8120010663580155 6.694975209657402 13.943084932676594 0 0 0
526 59 2 0 10.006701324134326 6.859909487382431 13.943080401645307 0 0 0
528 59 2 0 12.201399464665023 6.694975209657381 13.943084932676584 0 0 0
523 59 1 0 11.104048468471065 6.7774233716848595 15.47746386203686 0 0 0
532 60 1 0 15.493446866778068 6.777423371684835 15.477463862036874 0 0 0
535 60 2 0 14.396099722441301 6.859909487382442 13.943080401645297 0 0 0
537 60 2 0 16.590797862972007 6.694975209657377 13.943084932676587 0 0 0
544 61 2 0 -5.3561920391819475 10.661237450889193 13.943080401645304 0 0 0
546 61 2 0 -3.1614938986512455 10.496303173164138 13.943084932676594 0 0 0
541 61 1 0 -4.258844894845186 10.578751335191582 15.477463862036853 0 0 0
553 62 2 0 -0.9667936408749526 10.661237450889232 13.943080401645293 0 0 0
555 62 2 0 1.2279044996557542 10.496303173164167 13.943084932676577 0 0 0
550 62 1 0 0.13055350346181582 10.578751335191598 15.477463862036842 0 0 0
562 63 2 0 3.4226047574320497 10.661237450889221 13.943080401645293 0 0 0
564 63 2 0 5.61730289796276 10.496303173164163 13.943084932676577 0 0 0
559 63 1 0 4.5199519017688035 10.578751335191598 15.477463862036842 0 0 0
571 64 2 0 7.812003155739054 10.661237450889193 13.943080401645283 0 0 0
573 64 2 0 10.006701296269757 10.496303173164131 13.943084932676584 0 0 0
568 64 1 0 8.909350300075792 10.5787513351916 15.477463862036853 0 0 0
580 65 2 0 12.201401554046052 10.661237450889187 13.943080401645304 0 0 0
577 65 1 0 13.29874869838281 10.578751335191605 15.477463862036863 0 0 0
582 65 2 0 14.39609969457676 10.496303173164138 13.943084932676587 0 0 0
589 66 2 0 -7.550890207577242 14.462565414395973 13.943080401645314 0 0 0
591 66 2 0 -5.356192067046502 14.297631136670892 13.943084932676594 0 0 0
586 66 1 0 -6.453543063240455 14.380079298698357 15.477463862036885 0 0 0
598 67 2 0 -3.1614918092702227 14.462565414395984 13.943080401645307 0 0 0
595 67 1 0 -2.0641446649334525 14.380079298698357 15.47746386203686 0 0 0
600 67 2 0 -0.9667936687395263 14.297631136670937 13.943084932676584 0 0 0
607 68 2 0 1.2279065890367726 14.462565414396007 13.943080401645293 0 0 0
609 68 2 0 3.4226047295674893 14.297631136670917 13.943084932676577 0 0 0
604 68 1 0 2.3252537333735384 14.380079298698357 15.47746386203687 0 0 0
616 69 2 0 5.617304987343766 14.462565414395977 13.943080401645293 0 0 0
613 69 1 0 6.7146521316805385 14.380079298698357 15.47746386203686 0 0 0
618 69 2 0 7.812003127874472 14.297631136670894 13.943084932676573 0 0 0
625 70 2 0 10.00670338565078 14.462565414395968 13.943080401645293 0 0 0
627 70 2 0 12.201401526181472 14.297631136670892 13.943084932676587 0 0 0
622 70 1 0 11.104050529987537 14.380079298698345 15.477463862036842 0 0 0
634 71 2 0 -9.745588375972497 18.26389337790273 13.943080401645283 0 0 0
631 71 1 0 -8.648241231635724 18.181407262205102 15.47746386203685 0 0 0
636 71 2 0 -7.55089023544178 18.098959100177673 13.943084932676573 0 0 0
643 72 2 0 -5.356189977665488 18.263893377902725 13.943080401645293 0 0 0
645 72 2 0 -3.1614918371347858 18.09895910017768 13.943084932676594 0 0 0
640 72 1 0 -4.258842833328726 18.181407262205123 15.47746386203686 0 0 0
652 73 2 0 -0.9667915793584919 18.263893377902736 13.943080401645297 0 0 0
654 73 2 0 1.2279065611722086 18.0989591001777 13.943084932676584 0 0 0
649 73 1 0 0.13055556497826848 18.18140726220511 15.477463862036853 0 0 0
661 74 2 0 3.422606818948504 18.26389337790274 13.943080401645297 0 0 0
663 74 2 0 5.617304959479211 18.098959100177673 13.943084932676577 0 0 0
658 74 1 0 4.519953963285272 18.181407262205113 15.477463862036874 0 0 0
670 75 2 0 7.812005217255506 18.26389337790273 13.943080401645286 0 0 0
672 75 2 0 10.006703357786199 18.098959100177662 13.943084932676584 0 0 0
667 75 1 0 8.909352361592283 18.1814072622051 15.47746386203685 0 0 0
459 51 2 0 4.042671011378 1.9845420336218351 17.011845473779516 0 0 0
678 76 1 0 3.42255963635244 1.0754547613069467 18.546229860521677 0 0 0
468 52 2 0 8.432069409685004 1.9845420336218322 17.011845473779534 0 0 0
687 77 1 0 7.81195803465946 1.0754547613069658 18.5462298605217 0 0 0
477 53 2 0 12.821467807991999 1.9845420336218498 17.011845473779534 0 0 0
696 78 1 0 12.20135643296644 1.075454761306955 18.5462298605217 0 0 0
705 79 1 0 16.59075483127343 1.0754547613069625 18.546229860521702 0 0 0
486 54 2 0 17.210866206299006 1.9845420336218231 17.011845473779523 0 0 0
495 55 2 0 21.60026460460602 1.9845420336218285 17.011845473779513 0 0 0
714 80 1 0 20.980153229580434 1.0754547613069552 18.546229860521674 0 0 0
455 51 2 0 0.6077826243894254 3.967673885672411 17.011849841463462 0 0 0
723 81 1 0 1.227861467957171 4.876782724813717 18.546229860521688 0 0 0
504 56 2 0 1.8479728429827258 5.7858699971285805 17.011845473779537 0 0 0
464 52 2 0 4.997181022696416 3.967673885672399 17.011849841463462 0 0 0
513 57 2 0 6.237371241289739 5.785869997128593 17.011845473779534 0 0 0
732 82 1 0 5.617259866264161 4.876782724813717 18.546229860521688 0 0 0
473 53 2 0 9.386579421003427 3.9676738856724074 17.011849841463466 0 0 0
741 83 1 0 10.006658264571168 4.8767827248137205 18.546229860521688 0 0 0
522 58 2 0 10.6267696395967 5.785869997128614 17.011845473779534 0 0 0
482 54 2 0 13.775977819310391 3.967673885672435 17.011849841463466 0 0 0
531 59 2 0 15.01616803790373 5.785869997128607 17.011845473779534 0 0 0
750 84 1 0 14.39605666287817 4.8767827248137205 18.54622986052171 0 0 0
491 55 2 0 18.165376217617403 3.9676738856724048 17.01184984146345 0 0 0
540 60 2 0 19.405566436210723 5.785869997128588 17.011845473779523 0 0 0
759 85 1 0 18.785455061185164 4.8767827248137205 18.546229860521688 0 0 0
500 56 2 0 -1.586915544005874 7.7690018491791655 17.011849841463444 0 0 0
549 61 2 0 -0.3467253254125401 9.58719796063535 17.011845473779523 0 0 0
768 86 1 0 -0.9668367004381143 8.678110688320492 18.546229860521674 0 0 0
509 57 2 0 2.8024828543011453 7.769001849179155 17.01184984146344 0 0 0
558 62 2 0 4.042673072894461 9.587197960635347 17.011845473779516 0 0 0
777 87 1 0 3.4225616978689133 8.678110688320492 18.546229860521684 0 0 0
518 58 2 0 7.191881252608147 7.76900184917916 17.011849841463462 0 0 0
567 63 2 0 8.432071471201422 9.587197960635377 17.011845473779523 0 0 0
786 88 1 0 7.811960096175881 8.678110688320482 18.5462298605217 0 0 0
527 59 2 0 11.581279650915109 7.769001849179187 17.011849841463455 0 0 0
576 64 2 0 12.821469869508446 9.587197960635372 17.011845473779534 0 0 0
795 89 1 0 12.201358494482905 8.678110688320496 18.5462298605217 0 0 0
536 60 2 0 15.970678049222142 7.769001849179185 17.011849841463462 0 0 0
804 90 1 0 16.590756892789894 8.67811068832049 18.54622986052171 0 0 0
585 65 2 0 17.210868267815442 9.587197960635368 17.011845473779534 0 0 0
545 61 2 0 -3.7816137124011404 11.570329812685944 17.011849841463462 0 0 0
813 91 1 0 -3.161534868833377 12.47943865182723 18.546229860521674 0 0 0
554 62 2 0 0.6077846859058976 11.5703298126859 17.011849841463455 0 0 0
822 92 1 0 1.2278635294736282 12.479438651827229 18.546229860521684 0 0 0
563 63 2 0 4.9971830842129075 11.570329812685891 17.01184984146345 0 0 0
831 93 1 0 5.61726192778063 12.479438651827238 18.546229860521684 0 0 0
572 64 2 0 9.386581482519885 11.570329812685916 17.01184984146345 0 0 0
840 94 1 0 10.006660326087623 12.479438651827234 18.5462298605217 0 0 0
581 65 2 0 13.775979880826869 11.57032981268594 17.011849841463466 0 0 0
849 95 1 0 14.396058724394617 12.479438651827241 18.54622986052169 0 0 0
590 66 2 0 -5.976311880796396 15.371657776192691 17.011849841463462 0 0 0
858 96 1 0 -5.356233037228633 16.280766615334 18.5462298605217 0 0 0
594 66 2 0 -2.541423493807787 13.388525924142106 17.011845473779537 0 0 0
599 67 2 0 -1.586913482489384 15.37165777619268 17.01184984146345 0 0 0
867 97 1 0 -0.9668346389216106 16.28076661533399 18.546229860521702 0 0 0
603 67 2 0 1.8479749044992189 13.388525924142076 17.011845473779527 0 0 0
608 68 2 0 2.802484915817621 15.371657776192663 17.011849841463455 0 0 0
876 98 1 0 3.4225637593853553 16.28076661533401 18.546229860521688 0 0 0
612 68 2 0 6.237373302806201 13.388525924142098 17.011845473779534 0 0 0
617 69 2 0 7.191883314124609 15.371657776192679 17.011849841463462 0 0 0
885 99 1 0 7.811962157692357 16.280766615334006 18.54622986052169 0 0 0
621 69 2 0 10.626771701113174 13.388525924142112 17.011845473779527 0 0 0
626 70 2 0 11.581281712431604 15.371657776192688 17.011849841463455 0 0 0
894 100 1 0 12.201360555999356 16.280766615333985 18.546229860521674 0 0 0
630 70 2 0 15.01617009942016 13.388525924142137 17.011845473779534 0 0 0
635 71 2 0 -8.171010049191635 19.172985739699424 17.011849841463455 0 0 0
639 71 2 0 -4.736121662203069 17.189853887648873 17.011845473779523 0 0 0
644 72 2 0 -3.7816116508846576 19.172985739699435 17.01184984146345 0 0 0
648 72 2 0 -0.3467232638960519 17.18985388764887 17.011845473779537 0 0 0
653 73 2 0 0.60778674742236 19.172985739699445 17.011849841463473 0 0 0
657 73 2 0 4.042675134410918 17.189853887648866 17.011845473779523 0 0 0
662 74 2 0 4.997185145729332 19.172985739699435 17.011849841463455 0 0 0
666 74 2 0 8.432073532717911 17.189853887648873 17.011845473779523 0 0 0
671 75 2 0 9.386583544036354 19.17298573969943 17.01184984146345 0 0 0
675 75 2 0 12.821471931024906 17.18985388764888 17.011845473779523 0 0 0
683 76 2 0 2.802488068764516 1.9845655373731976 20.08061172078519 0 0 0
692 77 2 0 7.19188646707154 1.984565537373207 20.080611720785186 0 0 0
701 78 2 0 11.581284865378523 1.9845655373732067 20.080611720785186 0 0 0
710 79 2 0 15.97068326368549 1.9845655373732136 20.0806117207852 0 0 0
719 80 2 0 20.360081661992492 1.9845655373731916 20.080611720785164 0 0 0
728 81 2 0 0.6077899003692423 5.785893500879963 20.08061172078519 0 0 0
682 76 2 0 1.8479802378900168 3.967699577074767 20.080615930292705 0 0 0
737 82 2 0 4.997188298676227 5.785893500879965 20.08061172078519 0 0 0
691 77 2 0 6.237378636197009 3.9676995770747645 20.080615930292694 0 0 0
746 83 2 0 9.38658669698322 5.785893500879956 20.080611720785196 0 0 0
700 78 2 0 10.626777034504036 3.9676995770747716 20.080615930292694 0 0 0
755 84 2 0 13.775985095290244 5.785893500879984 20.080611720785196 0 0 0
709 79 2 0 15.016175432811002 3.9676995770747814 20.080615930292705 0 0 0
718 80 2 0 19.40557383111802 3.967699577074773 20.08061593029269 0 0 0
764 85 2 0 18.165383493597226 5.7858935008799595 20.080611720785196 0 0 0
773 86 2 0 -1.5869082680260562 9.587221464386719 20.08061172078519 0 0 0
727 81 2 0 -0.34671793050526334 7.769027540581531 20.080615930292684 0 0 0
736 82 2 0 4.042680467801769 7.769027540581538 20.080615930292694 0 0 0
782 87 2 0 2.8024901302809586 9.587221464386706 20.080611720785196 0 0 0
791 88 2 0 7.191888528587981 9.58722146438673 20.080611720785196 0 0 0
745 83 2 0 8.432078866108764 7.769027540581568 20.080615930292705 0 0 0
754 84 2 0 12.82147726441578 7.7690275405815505 20.080615930292694 0 0 0
800 89 2 0 11.581286926894999 9.587221464386737 20.080611720785186 0 0 0
809 90 2 0 15.970685325201993 9.587221464386747 20.080611720785196 0 0 0
763 85 2 0 17.210875662722717 7.76902754058154 20.08061593029271 0 0 0
772 86 2 0 -2.541416098900554 11.570355504088278 20.080615930292705 0 0 0
781 87 2 0 1.8479822994064325 11.570355504088257 20.080615930292705 0 0 0
790 88 2 0 6.23738069771345 11.570355504088278 20.080615930292694 0 0 0
799 89 2 0 10.626779096020485 11.570355504088315 20.08061593029269 0 0 0
808 90 2 0 15.016177494327478 11.570355504088305 20.080615930292698 0 0 0
817 91 2 0 -4.736114267295771 15.371683467595064 20.080615930292716 0 0 0
818 91 2 0 -3.78160643642129 13.388549427893478 20.08061172078521 0 0 0
827 92 2 0 0.6077919618856683 13.388549427893443 20.08061172078521 0 0 0
826 92 2 0 -0.34671586898880535 15.371683467595037 20.080615930292698 0 0 0
835 93 2 0 4.042682529318182 15.371683467595041 20.080615930292694 0 0 0
836 93 2 0 4.997190360192646 13.388549427893457 20.080611720785196 0 0 0
845 94 2 0 9.386588758499666 13.388549427893457 20.080611720785186 0 0 0
844 94 2 0 8.432080927625183 15.371683467595037 20.080615930292705 0 0 0
853 95 2 0 12.821479325932225 15.37168346759506 20.08061593029271 0 0 0
854 95 2 0 13.775987156806702 13.388549427893496 20.08061172078521 0 0 0
862 96 2 0 -6.930812435691034 19.17301143110182 20.08061593029271 0 0 0
863 96 2 0 -5.976304604816552 17.18987739140024 20.080611720785196 0 0 0
871 97 2 0 -2.54141403738404 19.17301143110181 20.080615930292694 0 0 0
872 97 2 0 -1.5869062065095423 17.189877391400234 20.080611720785196 0 0 0
880 98 2 0 1.8479843609229367 19.1730114311018 20.080615930292716 0 0 0
881 98 2 0 2.802492191797415 17.18987739140022 20.08061172078519 0 0 0
889 99 2 0 6.237382759229923 19.1730114311018 20.080615930292705 0 0 0
890 99 2 0 7.191890590104404 17.18987739140022 20.080611720785186 0 0 0
898 100 2 0 10.62678115753695 19.173011431101802 20.080615930292705 0 0 0
899 100 2 0 11.58128898841142 17.189877391400213 20.080611720785196 0 0 0
679 76 2 0 -0.9667957023914305 3.058581523875669 23.149377128522858 0 0 0
681 76 2 0 1.2279024381392762 2.8936472461506195 23.14938165955415 0 0 0
677 76 1 0 2.325249863957508 2.9761422849554218 21.614998733338904 0 0 0
688 77 2 0 3.4226026959155855 3.0585815238756715 23.149377128522858 0 0 0
690 77 2 0 5.617300836446282 2.8936472461506044 23.149381659554138 0 0 0
686 77 1 0 6.714648262264514 2.9761422849554173 21.614998733338922 0 0 0
697 78 2 0 7.812001094222567 3.058581523875673 23.149377128522858 0 0 0
699 78 2 0 10.006699234753277 2.8936472461506124 23.149381659554166 0 0 0
695 78 1 0 11.104046660571512 2.9761422849554244 21.6149987333389 0 0 0
706 79 2 0 12.201399492529564 3.058581523875646 23.149377128522865 0 0 0
704 79 1 0 15.4934450588785 2.9761422849554204 21.6149987333389 0 0 0
708 79 2 0 14.396097633060275 2.893647246150624 23.149381659554166 0 0 0
715 80 2 0 16.590797890836587 3.05858152387567 23.14937712852287 0 0 0
717 80 2 0 18.78549603136727 2.893647246150618 23.14938165955415 0 0 0
713 80 1 0 19.88284345718552 2.9761422849554133 21.6149987333389 0 0 0
724 81 2 0 -3.1614938707867037 6.859909487382433 23.149377128522858 0 0 0
726 81 2 0 -0.9667957302559919 6.694975209657361 23.14938165955413 0 0 0
722 81 1 0 0.13055169556223156 6.777470248462185 21.61499873333889 0 0 0
733 82 2 0 1.2279045275203084 6.859909487382435 23.14937712852287 0 0 0
735 82 2 0 3.422602668051008 6.6949752096573665 23.14938165955415 0 0 0
731 82 1 0 4.519950093869242 6.77747024846218 21.6149987333389 0 0 0
742 83 2 0 5.6173029258273015 6.859909487382442 23.149377128522858 0 0 0
744 83 2 0 7.812001066358006 6.6949752096573665 23.14938165955415 0 0 0
740 83 1 0 8.909348492176234 6.777470248462189 21.61499873333893 0 0 0
751 84 2 0 10.006701324134298 6.859909487382424 23.149377128522886 0 0 0
753 84 2 0 12.201399464664993 6.694975209657342 23.149381659554173 0 0 0
749 84 1 0 13.298746890483214 6.777470248462194 21.614998733338915 0 0 0
760 85 2 0 14.396099722441305 6.859909487382385 23.149377128522886 0 0 0
762 85 2 0 16.590797862971993 6.694975209657359 23.14938165955415 0 0 0
758 85 1 0 17.688145288790217 6.7774702484621745 21.614998733338922 0 0 0
769 86 2 0 -5.3561920391819635 10.661237450889162 23.14937712852287 0 0 0
771 86 2 0 -3.1614938986512757 10.496303173164131 23.14938165955415 0 0 0
767 86 1 0 -2.0641464728330283 10.578798211968945 21.614998733338915 0 0 0
778 87 2 0 -0.9667936408749774 10.661237450889203 23.149377128522886 0 0 0
780 87 2 0 1.2279044996557213 10.496303173164133 23.14938165955415 0 0 0
776 87 1 0 2.325251925473967 10.578798211968925 21.61499873333891 0 0 0
787 88 2 0 3.4226047574320337 10.661237450889216 23.14937712852288 0 0 0
789 88 2 0 5.617302897962739 10.496303173164142 23.14938165955415 0 0 0
785 88 1 0 6.71465032378096 10.578798211968946 21.6149987333389 0 0 0
796 89 2 0 7.812003155739033 10.661237450889205 23.14937712852287 0 0 0
798 89 2 0 10.006701296269744 10.49630317316412 23.149381659554138 0 0 0
794 89 1 0 11.104048722087972 10.57879821196894 21.614998733338947 0 0 0
805 90 2 0 12.201401554046013 10.661237450889175 23.149377128522858 0 0 0
803 90 1 0 15.49344712039496 10.578798211968937 21.614998733338904 0 0 0
807 90 2 0 14.396099694576721 10.496303173164087 23.14938165955415 0 0 0
814 91 2 0 -7.5508902075772495 14.462565414395929 23.149377128522886 0 0 0
816 91 2 0 -5.356192067046544 14.297631136670862 23.149381659554166 0 0 0
812 91 1 0 -4.2588446412283005 14.380126175475691 21.614998733338915 0 0 0
823 92 2 0 -3.161491809270251 14.46256541439594 23.149377128522886 0 0 0
821 92 1 0 0.1305537570786962 14.380126175475674 21.614998733338936 0 0 0
825 92 2 0 -0.9667936687395396 14.2976311366709 23.149381659554166 0 0 0
832 93 2 0 1.2279065890367602 14.462565414395986 23.149377128522886 0 0 0
834 93 2 0 3.4226047295674618 14.297631136670914 23.149381659554166 0 0 0
830 93 1 0 4.519952155385688 14.380126175475706 21.614998733338915 0 0 0
841 94 2 0 5.61730498734375 14.462565414395998 23.149377128522886 0 0 0
843 94 2 0 7.812003127874441 14.297631136670901 23.14938165955415 0 0 0
839 94 1 0 8.909350553692692 14.380126175475697 21.614998733338894 0 0 0
850 95 2 0 10.006703385650752 14.462565414395955 23.14937712852287 0 0 0
848 95 1 0 13.298748951999704 14.380126175475707 21.61499873333893 0 0 0
852 95 2 0 12.201401526181451 14.297631136670871 23.14938165955415 0 0 0
859 96 2 0 -9.745588375972494 18.26389337790271 23.14937712852285 0 0 0
861 96 2 0 -7.550890235441794 18.098959100177623 23.149381659554138 0 0 0
857 96 1 0 -6.453542809623555 18.181454138982467 21.614998733338922 0 0 0
868 97 2 0 -5.356189977665498 18.2638933779027 23.14937712852285 0 0 0
870 97 2 0 -3.1614918371347787 18.098959100177638 23.14938165955415 0 0 0
866 97 1 0 -2.0641444113165597 18.181454138982456 21.614998733338926 0 0 0
877 98 2 0 -0.9667915793585061 18.2638933779027 23.149377128522865 0 0 0
879 98 2 0 1.227906561172198 18.09895910017768 23.149381659554145 0 0 0
875 98 1 0 2.325253986990431 18.181454138982463 21.61499873333889 0 0 0
886 99 2 0 3.4226068189485184 18.263893377902715 23.149377128522865 0 0 0
888 99 2 0 5.617304959479211 18.098959100177687 23.149381659554166 0 0 0
884 99 1 0 6.714652385297446 18.181454138982467 21.614998733338915 0 0 0
895 100 2 0 7.8120052172554955 18.26389337790271 23.149377128522858 0 0 0
897 100 2 0 10.006703357786193 18.098959100177648 23.14938165955415 0 0 0
893 100 1 0 11.104050783604434 18.181454138982485 21.61499873333889 0 0 0
676 76 1 0 0.13055144194531298 2.976095408178089 24.683760588914474 0 0 0
684 76 2 0 4.0426710113779745 1.9845420336218467 26.218142200657084 0 0 0
685 77 1 0 4.519949840252322 2.9760954081780895 24.68376058891448 0 0 0
693 77 2 0 8.43206940968498 1.9845420336218562 26.21814220065707 0 0 0
694 78 1 0 8.909348238559312 2.976095408178099 24.683760588914467 0 0 0
703 79 1 0 13.29874663686632 2.976095408178066 24.683760588914453 0 0 0
702 78 2 0 12.82146780799197 1.9845420336218378 26.218142200657084 0 0 0
711 79 2 0 17.210866206298952 1.9845420336218482 26.218142200657105 0 0 0
712 80 1 0 17.688145035173303 2.976095408178078 24.683760588914467 0 0 0
720 80 2 0 21.600264604605968 1.984542033621869 26.218142200657084 0 0 0
721 81 1 0 -2.0641467264499536 6.777423371684833 24.68376058891448 0 0 0
680 76 2 0 0.6077826243893861 3.967673885672444 26.21814656834102 0 0 0
729 81 2 0 1.8479728429826685 5.785869997128623 26.218142200657105 0 0 0
730 82 1 0 2.3252516718570453 6.777423371684836 24.683760588914467 0 0 0
689 77 2 0 4.997181022696368 3.9676738856724434 26.21814656834102 0 0 0
738 82 2 0 6.2373712412896625 5.785869997128625 26.218142200657084 0 0 0
739 83 1 0 6.7146500701640415 6.7774233716848595 24.683760588914467 0 0 0
698 78 2 0 9.386579421003358 3.9676738856724496 26.218146568341012 0 0 0
747 83 2 0 10.62676963959665 5.785869997128641 26.218142200657105 0 0 0
748 84 1 0 11.10404846847103 6.777423371684865 24.68376058891448 0 0 0
707 79 2 0 13.77597781931036 3.9676738856724603 26.218146568341034 0 0 0
756 84 2 0 15.01616803790368 5.78586999712863 26.218142200657105 0 0 0
757 85 1 0 15.493446866778045 6.777423371684824 24.68376058891448 0 0 0
765 85 2 0 19.405566436210687 5.785869997128623 26.21814220065707 0 0 0
716 80 2 0 18.16537621761738 3.9676738856724336 26.218146568341012 0 0 0
725 81 2 0 -1.5869155440059046 7.769001849179194 26.218146568340998 0 0 0
774 86 2 0 -0.3467253254126058 9.58719796063538 26.218142200657084 0 0 0
734 82 2 0 2.8024828543010947 7.769001849179213 26.218146568340998 0 0 0
783 87 2 0 4.042673072894393 9.587197960635397 26.218142200657084 0 0 0
743 83 2 0 7.191881252608084 7.769001849179217 26.218146568341012 0 0 0
792 88 2 0 8.43207147120139 9.587197960635402 26.218142200657105 0 0 0
752 84 2 0 11.58127965091508 7.769001849179224 26.21814656834104 0 0 0
801 89 2 0 12.821469869508404 9.587197960635393 26.218142200657105 0 0 0
761 85 2 0 15.970678049222085 7.76900184917919 26.21814656834102 0 0 0
810 90 2 0 17.210868267815403 9.587197960635383 26.218142200657105 0 0 0
766 86 1 0 -4.2588448948452315 10.578751335191598 24.683760588914446 0 0 0
770 86 2 0 -3.781613712401201 11.570329812685975 26.21814656834102 0 0 0
775 87 1 0 0.1305535034617883 10.578751335191608 24.683760588914467 0 0 0
779 87 2 0 0.6077846859058381 11.570329812685952 26.218146568341005 0 0 0
784 88 1 0 4.519951901768805 10.578751335191612 24.683760588914446 0 0 0
788 88 2 0 4.997183084212859 11.570329812685967 26.218146568340998 0 0 0
793 89 1 0 8.909350300075788 10.578751335191614 24.68376058891448 0 0 0
797 89 2 0 9.386581482519835 11.570329812685967 26.218146568341034 0 0 0
802 90 1 0 13.298748698382779 10.57875133519161 24.683760588914495 0 0 0
806 90 2 0 13.77597988082683 11.570329812685967 26.218146568341012 0 0 0
811 91 1 0 -6.4535430632404935 14.380079298698366 24.683760588914467 0 0 0
815 91 2 0 -5.976311880796433 15.371657776192727 26.218146568341012 0 0 0
819 91 2 0 -2.5414234938078555 13.38852592414214 26.218142200657105 0 0 0
820 92 1 0 -2.0641446649335005 14.38007929869835 24.683760588914467 0 0 0
824 92 2 0 -1.5869134824894 15.371657776192695 26.218146568341034 0 0 0
828 92 2 0 1.8479749044991531 13.38852592414213 26.21814220065709 0 0 0
829 93 1 0 2.3252537333735144 14.380079298698368 24.683760588914467 0 0 0
833 93 2 0 2.802484915817623 15.371657776192691 26.218146568341034 0 0 0
837 93 2 0 6.237373302806155 13.388525924142156 26.218142200657105 0 0 0
838 94 1 0 6.714652131680516 14.38007929869836 24.683760588914446 0 0 0
842 94 2 0 7.191883314124609 15.371657776192688 26.21814656834104 0 0 0
846 94 2 0 10.626771701113132 13.388525924142142 26.218142200657105 0 0 0
847 95 1 0 11.104050529987495 14.380079298698362 24.68376058891448 0 0 0
851 95 2 0 11.581281712431567 15.371657776192704 26.218146568341005 0 0 0
855 95 2 0 15.016170099420092 13.388525924142149 26.218142200657105 0 0 0
856 96 1 0 -8.648241231635744 18.18140726220512 24.683760588914467 0 0 0
860 96 2 0 -8.171010049191688 19.172985739699463 26.218146568340998 0 0 0
864 96 2 0 -4.736121662203095 17.189853887648894 26.21814220065707 0 0 0
865 97 1 0 -4.25884283332874 18.181407262205116 24.68376058891448 0 0 0
869 97 2 0 -3.781611650884669 19.172985739699474 26.218146568340998 0 0 0
873 97 2 0 -0.3467232638960732 17.189853887648862 26.218142200657105 0 0 0
874 98 1 0 0.13055556497826493 18.181407262205113 24.683760588914467 0 0 0
878 98 2 0 0.6077867474223192 19.172985739699445 26.218146568341005 0 0 0
882 98 2 0 4.042675134410911 17.18985388764886 26.218142200657105 0 0 0
883 99 1 0 4.5199539632852614 18.1814072622051 24.683760588914453 0 0 0
887 99 2 0 4.997185145729321 19.172985739699442 26.218146568341034 0 0 0
891 99 2 0 8.432073532717885 17.18985388764889 26.218142200657105 0 0 0
892 100 1 0 8.909352361592276 18.18140726220511 24.683760588914453 0 0 0
896 100 2 0 9.386583544036313 19.17298573969947 26.218146568341034 0 0 0
900 100 2 0 12.821471931024863 17.189853887648898 26.218142200657084 0 0 0
908 101 2 0 2.8024880687645335 1.9845655373732354 29.286908447662753 0 0 0
903 101 1 0 3.4225596363524375 1.075454761306962 27.752526587399288 0 0 0
917 102 2 0 7.191886467071551 1.9845655373732332 29.28690844766274 0 0 0
912 102 1 0 7.811958034659429 1.0754547613069794 27.75252658739928 0 0 0
926 103 2 0 11.581284865378503 1.9845655373732214 29.286908447662768 0 0 0
921 103 1 0 12.201356432966403 1.0754547613069747 27.75252658739928 0 0 0
935 104 2 0 15.970683263685489 1.984565537373201 29.286908447662753 0 0 0
930 104 1 0 16.590754831273426 1.07545476130696 27.752526587399267 0 0 0
939 105 1 0 20.98015322958043 1.0754547613069776 27.752526587399288 0 0 0
944 105 2 0 20.360081661992506 1.984565537373212 29.286908447662732 0 0 0
953 106 2 0 0.6077899003692752 5.785893500880002 29.286908447662746 0 0 0
948 106 1 0 1.227861467957171 4.876782724813729 27.752526587399288 0 0 0
907 101 2 0 1.8479802378900563 3.967699577074801 29.286912657170248 0 0 0
962 107 2 0 4.997188298676272 5.7858935008799985 29.28690844766274 0 0 0
957 107 1 0 5.617259866264154 4.876782724813738 27.752526587399288 0 0 0
916 102 2 0 6.237378636197046 3.967699577074795 29.286912657170248 0 0 0
971 108 2 0 9.386586696983253 5.78589350088 29.286908447662768 0 0 0
966 108 1 0 10.006658264571124 4.876782724813733 27.75252658739928 0 0 0
925 103 2 0 10.626777034504013 3.967699577074792 29.28691265717027 0 0 0
980 109 2 0 13.775985095290237 5.785893500879984 29.286908447662753 0 0 0
975 109 1 0 14.396056662878118 4.876782724813717 27.752526587399245 0 0 0
934 104 2 0 15.01617543281102 3.967699577074787 29.286912657170262 0 0 0
984 110 1 0 18.785455061185164 4.876782724813745 27.752526587399302 0 0 0
989 110 2 0 18.165383493597243 5.785893500879986 29.286908447662753 0 0 0
943 105 2 0 19.40557383111805 3.967699577074802 29.286912657170248 0 0 0
998 111 2 0 -1.5869082680259892 9.587221464386767 29.286908447662753 0 0 0
993 111 1 0 -0.966836700438101 8.67811068832049 27.752526587399288 0 0 0
952 106 2 0 -0.3467179305052078 7.769027540581565 29.286912657170262 0 0 0
1002 112 1 0 3.4225616978688937 8.678110688320514 27.752526587399288 0 0 0
961 107 2 0 4.04268046780179 7.769027540581577 29.286912657170248 0 0 0
1007 112 2 0 2.8024901302810057 9.587221464386761 29.286908447662768 0 0 0
1016 113 2 0 7.191888528588005 9.587221464386765 29.286908447662753 0 0 0
1011 113 1 0 7.811960096175876 8.678110688320496 27.752526587399302 0 0 0
970 108 2 0 8.432078866108759 7.769027540581579 29.286912657170276 0 0 0
1020 114 1 0 12.201358494482873 8.678110688320496 27.752526587399316 0 0 0
979 109 2 0 12.821477264415728 7.769027540581575 29.286912657170276 0 0 0
1025 114 2 0 11.581286926894984 9.587221464386767 29.286908447662768 0 0 0
1034 115 2 0 15.970685325201964 9.587221464386737 29.286908447662753 0 0 0
1029 115 1 0 16.590756892789898 8.678110688320489 27.752526587399288 0 0 0
988 110 2 0 17.2108756627228 7.769027540581556 29.286912657170262 0 0 0
1038 116 1 0 -3.1615348688333835 12.479438651827223 27.752526587399288 0 0 0
997 111 2 0 -2.541416098900504 11.570355504088313 29.286912657170262 0 0 0
1047 117 1 0 1.2278635294736353 12.47943865182724 27.75252658739931 0 0 0
1006 112 2 0 1.8479822994064654 11.570355504088305 29.286912657170276 0 0 0
1056 118 1 0 5.617261927780629 12.47943865182725 27.75252658739928 0 0 0
1015 113 2 0 6.237380697713501 11.570355504088317 29.286912657170262 0 0 0
1065 119 1 0 10.006660326087621 12.479438651827257 27.752526587399288 0 0 0
1024 114 2 0 10.626779096020515 11.570355504088337 29.286912657170284 0 0 0
1074 120 1 0 14.396058724394626 12.479438651827255 27.75252658739931 0 0 0
1033 115 2 0 15.016177494327534 11.570355504088338 29.286912657170262 0 0 0
1083 121 1 0 -5.356233037228637 16.280766615334013 27.752526587399302 0 0 0
1042 116 2 0 -4.736114267295755 15.371683467595085 29.286912657170262 0 0 0
1043 116 2 0 -3.7816064364212445 13.388549427893535 29.286908447662768 0 0 0
1052 117 2 0 0.6077919618857234 13.388549427893492 29.286908447662768 0 0 0
1092 122 1 0 -0.9668346389216257 16.280766615334 27.752526587399245 0 0 0
1051 117 2 0 -0.34671586898879203 15.37168346759504 29.286912657170262 0 0 0
1101 123 1 0 3.4225637593853535 16.28076661533401 27.752526587399245 0 0 0
1060 118 2 0 4.0426825293182 15.371683467595052 29.286912657170284 0 0 0
1061 118 2 0 4.9971903601926915 13.388549427893471 29.286908447662775 0 0 0
1070 119 2 0 9.386588758499718 13.388549427893512 29.286908447662782 0 0 0
1110 124 1 0 7.8119621576923395 16.280766615334016 27.75252658739926 0 0 0
1069 119 2 0 8.432080927625211 15.371683467595094 29.286912657170298 0 0 0
1119 125 1 0 12.201360555999377 16.280766615334002 27.752526587399302 0 0 0
1078 120 2 0 12.821479325932268 15.371683467595103 29.286912657170276 0 0 0
1079 120 2 0 13.775987156806744 13.38854942789351 29.286908447662775 0 0 0
1088 121 2 0 -5.976304604816503 17.18987739140029 29.28690844766274 0 0 0
1087 121 2 0 -6.930812435691018 19.173011431101845 29.286912657170262 0 0 0
1096 122 2 0 -2.541414037384057 19.17301143110182 29.28691265717024 0 0 0
1097 122 2 0 -1.586906206509537 17.189877391400266 29.286908447662746 0 0 0
1106 123 2 0 2.802492191797404 17.189877391400262 29.286908447662768 0 0 0
1105 123 2 0 1.8479843609229047 19.173011431101816 29.286912657170262 0 0 0
1115 124 2 0 7.191890590104406 17.189877391400273 29.286908447662768 0 0 0
1114 124 2 0 6.237382759229942 19.173011431101813 29.286912657170276 0 0 0
1124 125 2 0 11.581288988411458 17.189877391400252 29.286908447662753 0 0 0
1123 125 2 0 10.626781157536977 19.173011431101823 29.286912657170262 0 0 0
904 101 2 0 -0.9667957023914214 3.0585815238756524 32.35567385540044 0 0 0
906 101 2 0 1.2279024381392731 2.893647246150612 32.35567838643172 0 0 0
902 101 1 0 2.3252498639575183 2.9761422849554324 30.82129546021649 0 0 0
913 102 2 0 3.422602695915581 3.0585815238756515 32.35567385540042 0 0 0
915 102 2 0 5.617300836446285 2.89364724615059 32.35567838643172 0 0 0
911 102 1 0 6.7146482622645225 2.9761422849554413 30.82129546021646 0 0 0
922 103 2 0 7.81200109422258 3.0585815238756844 32.35567385540044 0 0 0
924 103 2 0 10.006699234753286 2.893647246150652 32.35567838643172 0 0 0
920 103 1 0 11.104046660571495 2.9761422849554355 30.821295460216454 0 0 0
931 104 2 0 12.201399492529573 3.058581523875703 32.35567385540044 0 0 0
929 104 1 0 15.493445058878532 2.976142284955455 30.821295460216483 0 0 0
933 104 2 0 14.396097633060283 2.893647246150664 32.355678386431705 0 0 0
940 105 2 0 16.590797890836573 3.0585815238756826 32.35567385540041 0 0 0
942 105 2 0 18.785496031367273 2.8936472461506457 32.355678386431705 0 0 0
938 105 1 0 19.882843457185512 2.9761422849554315 30.821295460216483 0 0 0
949 106 2 0 -3.16149387078669 6.859909487382399 32.35567385540044 0 0 0
951 106 2 0 -0.966795730255987 6.694975209657347 32.35567838643172 0 0 0
947 106 1 0 0.1305516955622551 6.777470248462205 30.821295460216483 0 0 0
958 107 2 0 1.2279045275203218 6.859909487382415 32.355673855400426 0 0 0
960 107 2 0 3.422602668051021 6.694975209657352 32.35567838643172 0 0 0
956 107 1 0 4.519950093869265 6.777470248462183 30.821295460216497 0 0 0
967 108 2 0 5.617302925827313 6.859909487382431 32.35567385540044 0 0 0
969 108 2 0 7.812001066358028 6.694975209657388 32.35567838643172 0 0 0
965 108 1 0 8.909348492176237 6.777470248462205 30.82129546021649 0 0 0
976 109 2 0 10.006701324134324 6.859909487382444 32.35567385540044 0 0 0
978 109 2 0 12.20139946466504 6.6949752096574 32.3556783864317 0 0 0
974 109 1 0 13.29874689048326 6.7774702484622065 30.82129546021646 0 0 0
985 110 2 0 14.396099722441322 6.859909487382426 32.35567385540044 0 0 0
987 110 2 0 16.59079786297202 6.6949752096573825 32.35567838643172 0 0 0
983 110 1 0 17.68814528879026 6.777470248462201 30.82129546021649 0 0 0
994 111 2 0 -5.356192039181954 10.66123745088916 32.35567385540044 0 0 0
996 111 2 0 -3.161493898651243 10.496303173164097 32.35567838643172 0 0 0
992 111 1 0 -2.0641464728330057 10.578798211968953 30.82129546021649 0 0 0
1003 112 2 0 -0.966793640874965 10.661237450889185 32.355673855400454 0 0 0
1005 112 2 0 1.2279044996557569 10.496303173164115 32.35567838643173 0 0 0
1001 112 1 0 2.325251925473992 10.578798211968936 30.821295460216504 0 0 0
1012 113 2 0 3.4226047574320497 10.661237450889208 32.35567385540044 0 0 0
1014 113 2 0 5.6173028979627455 10.496303173164135 32.35567838643172 0 0 0
1010 113 1 0 6.714650323780991 10.578798211968957 30.821295460216497 0 0 0
1021 114 2 0 7.812003155739029 10.661237450889203 32.35567385540044 0 0 0
1023 114 2 0 10.006701296269751 10.496303173164149 32.35567838643174 0 0 0
1019 114 1 0 11.104048722087988 10.578798211968964 30.821295460216483 0 0 0
1030 115 2 0 12.201401554046045 10.661237450889177 32.35567385540045 0 0 0
1028 115 1 0 15.493447120394988 10.578798211968955 30.82129546021649 0 0 0
1032 115 2 0 14.396099694576764 10.496303173164122 32.35567838643172 0 0 0
1039 116 2 0 -7.55089020757723 14.462565414395929 32.35567385540044 0 0 0
1041 116 2 0 -5.3561920670465275 14.29763113667086 32.35567838643172 0 0 0
1037 116 1 0 -4.258844641228282 14.380126175475725 30.821295460216497 0 0 0
1048 117 2 0 -3.1614918092702404 14.46256541439594 32.35567385540045 0 0 0
1046 117 1 0 0.13055375707871664 14.380126175475725 30.821295460216483 0 0 0
1050 117 2 0 -0.9667936687395228 14.297631136670889 32.35567838643174 0 0 0
1057 118 2 0 1.2279065890367744 14.462565414396002 32.355673855400454 0 0 0
1059 118 2 0 3.4226047295674733 14.297631136670915 32.35567838643173 0 0 0
1055 118 1 0 4.519952155385713 14.380126175475725 30.82129546021649 0 0 0
1066 119 2 0 5.617304987343759 14.462565414396012 32.35567385540045 0 0 0
1068 119 2 0 7.81200312787448 14.297631136670905 32.35567838643172 0 0 0
1064 119 1 0 8.90935055369271 14.38012617547572 30.821295460216483 0 0 0
1075 120 2 0 10.006703385650786 14.462565414395966 32.35567385540044 0 0 0
1073 120 1 0 13.298748951999707 14.380126175475715 30.82129546021652 0 0 0
1077 120 2 0 12.201401526181462 14.297631136670873 32.35567838643174 0 0 0
1084 121 2 0 -9.745588375972483 18.263893377902704 32.355673855400426 0 0 0
1086 121 2 0 -7.550890235441776 18.098959100177627 32.355678386431705 0 0 0
1082 121 1 0 -6.453542809623557 18.181454138982485 30.821295460216504 0 0 0
1093 122 2 0 -5.35618997766548 18.263893377902676 32.35567385540042 0 0 0
1095 122 2 0 -3.161491837134783 18.098959100177634 32.35567838643169 0 0 0
1091 122 1 0 -2.064144411316543 18.181454138982467 30.821295460216483 0 0 0
1102 123 2 0 -0.9667915793585008 18.263893377902736 32.355673855400426 0 0 0
1104 123 2 0 1.2279065611722246 18.0989591001777 32.35567838643172 0 0 0
1100 123 1 0 2.3252539869904294 18.18145413898249 30.821295460216447 0 0 0
1111 124 2 0 3.422606818948515 18.263893377902757 32.35567385540044 0 0 0
1113 124 2 0 5.617304959479195 18.098959100177712 32.35567838643173 0 0 0
1109 124 1 0 6.714652385297449 18.18145413898249 30.821295460216447 0 0 0
1120 125 2 0 7.812005217255517 18.26389337790274 32.35567385540044 0 0 0
1122 125 2 0 10.006703357786224 18.098959100177662 32.35567838643173 0 0 0
1118 125 1 0 11.10405078360444 18.181454138982488 30.821295460216483 0 0 0
901 101 1 0 0.13055144194532675 2.976095408178084 33.890057315792006 0 0 0
909 101 2 0 4.042671011377979 1.9845420336218313 35.424438927534645 0 0 0
910 102 1 0 4.519949840252337 2.976095408178069 33.89005731579199 0 0 0
918 102 2 0 8.432069409684999 1.9845420336218218 35.42443892753466 0 0 0
919 103 1 0 8.90934823855933 2.9760954081780846 33.890057315791964 0 0 0
927 103 2 0 12.821467807992002 1.9845420336218367 35.424438927534645 0 0 0
928 104 1 0 13.29874663686633 2.9760954081780833 33.890057315791985 0 0 0
936 104 2 0 17.21086620629899 1.9845420336218578 35.42443892753466 0 0 0
937 105 1 0 17.688145035173328 2.976095408178083 33.89005731579202 0 0 0
945 105 2 0 21.600264604605975 1.9845420336218427 35.424438927534666 0 0 0
946 106 1 0 -2.064146726449923 6.777423371684836 33.89005731579202 0 0 0
905 101 2 0 0.6077826243893883 3.9676738856724354 35.42444329521859 0 0 0
954 106 2 0 1.847972842982689 5.785869997128623 35.42443892753466 0 0 0
955 107 1 0 2.325251671857075 6.77742337168484 33.89005731579199 0 0 0
914 102 2 0 4.99718102269638 3.967673885672434 35.424443295218566 0 0 0
963 107 2 0 6.237371241289698 5.785869997128607 35.42443892753466 0 0 0
964 108 1 0 6.714650070164084 6.777423371684849 33.890057315791985 0 0 0
923 103 2 0 9.386579421003395 3.96767388567243 35.42444329521859 0 0 0
972 108 2 0 10.626769639596704 5.785869997128621 35.42443892753466 0 0 0
973 109 1 0 11.104048468471067 6.777423371684865 33.890057315791985 0 0 0
932 104 2 0 13.775977819310388 3.967673885672425 35.42444329521857 0 0 0
981 109 2 0 15.016168037903707 5.785869997128604 35.424438927534666 0 0 0
982 110 1 0 15.493446866778052 6.777423371684856 33.890057315791985 0 0 0
941 105 2 0 18.165376217617396 3.967673885672408 35.42444329521859 0 0 0
990 110 2 0 19.40556643621068 5.785869997128607 35.42443892753466 0 0 0
950 106 2 0 -1.5869155440058749 7.7690018491791655 35.42444329521859 0 0 0
999 111 2 0 -0.34672532541255696 9.58719796063537 35.42443892753468 0 0 0
959 107 2 0 2.802482854301132 7.769001849179189 35.424443295218595 0 0 0
1008 112 2 0 4.042673072894436 9.587197960635374 35.42443892753468 0 0 0
968 108 2 0 7.19188125260813 7.769001849179192 35.42444329521861 0 0 0
1017 113 2 0 8.432071471201425 9.587197960635393 35.424438927534666 0 0 0
977 109 2 0 11.581279650915109 7.769001849179189 35.42444329521859 0 0 0
1026 114 2 0 12.82146986950841 9.587197960635365 35.42443892753468 0 0 0
986 110 2 0 15.970678049222093 7.769001849179176 35.424443295218595 0 0 0
1035 115 2 0 17.21086826781543 9.587197960635363 35.42443892753468 0 0 0
991 111 1 0 -4.258844894845202 10.578751335191592 33.890057315792006 0 0 0
995 111 2 0 -3.7816137124011404 11.570329812685927 35.42444329521859 0 0 0
1000 112 1 0 0.13055350346180783 10.578751335191587 33.890057315792006 0 0 0
1004 112 2 0 0.6077846859058736 11.570329812685923 35.42444329521859 0 0 0
1009 113 1 0 4.519951901768801 10.578751335191601 33.890057315792006 0 0 0
1013 113 2 0 4.997183084212858 11.570329812685937 35.42444329521859 0 0 0
1018 114 1 0 8.909350300075795 10.578751335191603 33.890057315792006 0 0 0
1022 114 2 0 9.386581482519857 11.570329812685927 35.424443295218595 0 0 0
1027 115 1 0 13.298748698382797 10.578751335191603 33.890057315792006 0 0 0
1031 115 2 0 13.775979880826851 11.570329812685939 35.42444329521859 0 0 0
1036 116 1 0 -6.453543063240473 14.38007929869835 33.89005731579202 0 0 0
1040 116 2 0 -5.976311880796412 15.371657776192697 35.424443295218595 0 0 0
1044 116 2 0 -2.5414234938078173 13.388525924142114 35.42443892753466 0 0 0
1045 117 1 0 -2.064144664933464 14.380079298698336 33.89005731579199 0 0 0
1049 117 2 0 -1.5869134824894036 15.371657776192706 35.42444329521859 0 0 0
1053 117 2 0 1.8479749044991665 13.388525924142126 35.42443892753468 0 0 0
1054 118 1 0 2.325253733373533 14.38007929869837 33.89005731579197 0 0 0
1058 118 2 0 2.8024849158176175 15.371657776192693 35.42444329521859 0 0 0
1062 118 2 0 6.23737330280618 13.388525924142124 35.424438927534666 0 0 0
1063 119 1 0 6.714652131680521 14.380079298698375 33.89005731579202 0 0 0
1067 119 2 0 7.191883314124605 15.371657776192684 35.42444329521861 0 0 0
1071 119 2 0 10.626771701113158 13.388525924142131 35.42443892753468 0 0 0
1072 120 1 0 11.10405052998752 14.38007929869838 33.890057315792006 0 0 0
1076 120 2 0 11.58128171243157 15.371657776192691 35.42444329521859 0 0 0
1080 120 2 0 15.016170099420174 13.388525924142133 35.42443892753468 0 0 0
1081 121 1 0 -8.648241231635724 18.181407262205116 33.890057315791985 0 0 0
1085 121 2 0 -8.171010049191674 19.172985739699445 35.424443295218595 0 0 0
1089 121 2 0 -4.7361216622030975 17.189853887648894 35.42443892753466 0 0 0
1090 122 1 0 -4.258842833328736 18.181407262205102 33.89005731579202 0 0 0
1094 122 2 0 -3.781611650884678 19.172985739699435 35.424443295218566 0 0 0
1098 122 2 0 -0.346723263896075 17.18985388764888 35.424438927534645 0 0 0
1099 123 1 0 0.13055556497826315 18.18140726220511 33.890057315791985 0 0 0
1103 123 2 0 0.6077867474223565 19.172985739699442 35.42444329521857 0 0 0
1107 123 2 0 4.0426751344109215 17.189853887648873 35.42443892753468 0 0 0
1108 124 1 0 4.519953963285263 18.181407262205113 33.89005731579195 0 0 0
1112 124 2 0 4.9971851457293495 19.172985739699445 35.42444329521861 0 0 0
1116 124 2 0 8.432073532717888 17.189853887648884 35.424438927534695 0 0 0
1117 125 1 0 8.909352361592257 18.18140726220512 33.89005731579202 0 0 0
1121 125 2 0 9.386583544036318 19.172985739699442 35.42444329521861 0 0 0
1125 125 2 0 12.8214719310249 17.18985388764889 35.424438927534666 0 0 0

Velocities

8 0 0 0
3 0 0 0
17 0 0 0
12 0 0 0
26 0 0 0
21 0 0 0
35 0 0 0
30 0 0 0
39 0 0 0
44 0 0 0
53 0 0 0
48 0 0 0
7 0 0 0
62 0 0 0
57 0 0 0
16 0 0 0
71 0 0 0
66 0 0 0
25 0 0 0
80 0 0 0
75 0 0 0
34 0 0 0
43 0 0 0
84 0 0 0
89 0 0 0
98 0 0 0
93 0 0 0
52 0 0 0
61 0 0 0
102 0 0 0
107 0 0 0
116 0 0 0
70 0 0 0
111 0 0 0
120 0 0 0
79 0 0 0
125 0 0 0
134 0 0 0
129 0 0 0
88 0 0 0
138 0 0 0
97 0 0 0
147 0 0 0
106 0 0 0
156 0 0 0
115 0 0 0
165 0 0 0
124 0 0 0
174 0 0 0
133 0 0 0
183 0 0 0
142 0 0 0
143 0 0 0
152 0 0 0
192 0 0 0
151 0 0 0
160 0 0 0
201 0 0 0
161 0 0 0
170 0 0 0
169 0 0 0
210 0 0 0
219 0 0 0
178 0 0 0
179 0 0 0
187 0 0 0
188 0 0 0
196 0 0 0
197 0 0 0
205 0 0 0
206 0 0 0
214 0 0 0
215 0 0 0
223 0 0 0
224 0 0 0
4 0 0 0
6 0 0 0
2 0 0 0
13 0 0 0
15 0 0 0
11 0 0 0
22 0 0 0
24 0 0 0
20 0 0 0
31 0 0 0
33 0 0 0
29 0 0 0
40 0 0 0
42 0 0 0
38 0 0 0
49 0 0 0
51 0 0 0
47 0 0 0
58 0 0 0
60 0 0 0
56 0 0 0
67 0 0 0
69 0 0 0
65 0 0 0
76 0 0 0
78 0 0 0
74 0 0 0
85 0 0 0
87 0 0 0
83 0 0 0
94 0 0 0
96 0 0 0
92 0 0 0
103 0 0 0
105 0 0 0
101 0 0 0
112 0 0 0
114 0 0 0
110 0 0 0
121 0 0 0
123 0 0 0
119 0 0 0
130 0 0 0
132 0 0 0
128 0 0 0
139 0 0 0
141 0 0 0
137 0 0 0
148 0 0 0
150 0 0 0
146 0 0 0
157 0 0 0
159 0 0 0
155 0 0 0
166 0 0 0
168 0 0 0
164 0 0 0
175 0 0 0
177 0 0 0
173 0 0 0
184 0 0 0
186 0 0 0
182 0 0 0
193 0 0 0
195 0 0 0
191 0 0 0
202 0 0 0
204 0 0 0
200 0 0 0
211 0 0 0
213 0 0 0
209 0 0 0
220 0 0 0
222 0 0 0
218 0 0 0
1 0 0 0
10 0 0 0
19 0 0 0
28 0 0 0
37 0 0 0
46 0 0 0
55 0 0 0
64 0 0 0
73 0 0 0
82 0 0 0
91 0 0 0
100 0 0 0
109 0 0 0
118 0 0 0
127 0 0 0
136 0 0 0
145 0 0 0
154 0 0 0
163 0 0 0
172 0 0 0
181 0 0 0
190 0 0 0
199 0 0 0
208 0 0 0
217 0 0 0
9 0 0 0
228 0 0 0
18 0 0 0
237 0 0 0
27 0 0 0
246 0 0 0
255 0 0 0
36 0 0 0
45 0 0 0
264 0 0 0
5 0 0 0
273 0 0 0
54 0 0 0
14 0 0 0
63 0 0 0
282 0 0 0
23 0 0 0
291 0 0 0
72 0 0 0
32 0 0 0
81 0 0 0
300 0 0 0
41 0 0 0
90 0 0 0
309 0 0 0
50 0 0 0
99 0 0 0
318 0 0 0
59 0 0 0
108 0 0 0
327 0 0 0
68 0 0 0
117 0 0 0
336 0 0 0
77 0 0 0
126 0 0 0
345 0 0 0
86 0 0 0
354 0 0 0
135 0 0 0
95 0 0 0
363 0 0 0
104 0 0 0
372 0 0 0
113 0 0 0
381 0 0 0
122 0 0 0
390 0 0 0
131 0 0 0
399 0 0 0
140 0 0 0
408 0 0 0
144 0 0 0
149 0 0 0
417 0 0 0
153 0 0 0
158 0 0 0
426 0 0 0
162 0 0 0
167 0 0 0
435 0 0 0
171 0 0 0
176 0 0 0
444 0 0 0
180 0 0 0
185 0 0 0
189 0 0 0
194 0 0 0
198 0 0 0
203 0 0 0
207 0 0 0
212 0 0 0
216 0 0 0
221 0 0 0
225 0 0 0
233 0 0 0
227 0 0 0
242 0 0 0
236 0 0 0
251 0 0 0
245 0 0 0
260 0 0 0
254 0 0 0
269 0 0 0
263 0 0 0
278 0 0 0
272 0 0 0
232 0 0 0
287 0 0 0
241 0 0 0
281 0 0 0
296 0 0 0
290 0 0 0
250 0 0 0
299 0 0 0
305 0 0 0
259 0 0 0
268 0 0 0
314 0 0 0
308 0 0 0
323 0 0 0
277 0 0 0
286 0 0 0
332 0 0 0
341 0 0 0
295 0 0 0
304 0 0 0
350 0 0 0
359 0 0 0
313 0 0 0
322 0 0 0
317 0 0 0
331 0 0 0
326 0 0 0
340 0 0 0
335 0 0 0
349 0 0 0
344 0 0 0
358 0 0 0
353 0 0 0
367 0 0 0
368 0 0 0
362 0 0 0
377 0 0 0
376 0 0 0
371 0 0 0
385 0 0 0
386 0 0 0
380 0 0 0
395 0 0 0
394 0 0 0
389 0 0 0
403 0 0 0
398 0 0 0
404 0 0 0
412 0 0 0
413 0 0 0
407 0 0 0
421 0 0 0
422 0 0 0
416 0 0 0
430 0 0 0
431 0 0 0
425 0 0 0
439 0 0 0
440 0 0 0
434 0 0 0
448 0 0 0
449 0 0 0
443 0 0 0
229 0 0 0
231 0 0 0
226 0 0 0
238 0 0 0
240 0 0 0
235 0 0 0
247 0 0 0
249 0 0 0
244 0 0 0
256 0 0 0
253 0 0 0
258 0 0 0
265 0 0 0
267 0 0 0
262 0 0 0
271 0 0 0
274 0 0 0
276 0 0 0
283 0 0 0
285 0 0 0
280 0 0 0
289 0 0 0
292 0 0 0
294 0 0 0
301 0 0 0
303 0 0 0
298 0 0 0
307 0 0 0
310 0 0 0
312 0 0 0
319 0 0 0
321 0 0 0
316 0 0 0
328 0 0 0
330 0 0 0
325 0 0 0
337 0 0 0
339 0 0 0
334 0 0 0
346 0 0 0
348 0 0 0
343 0 0 0
355 0 0 0
352 0 0 0
357 0 0 0
364 0 0 0
366 0 0 0
361 0 0 0
373 0 0 0
370 0 0 0
375 0 0 0
382 0 0 0
384 0 0 0
379 0 0 0
391 0 0 0
388 0 0 0
393 0 0 0
400 0 0 0
402 0 0 0
397 0 0 0
409 0 0 0
406 0 0 0
411 0 0 0
418 0 0 0
420 0 0 0
415 0 0 0
427 0 0 0
429 0 0 0
424 0 0 0
436 0 0 0
438 0 0 0
433 0 0 0
445 0 0 0
447 0 0 0
442 0 0 0
234 0 0 0
453 0 0 0
243 0 0 0
462 0 0 0
252 0 0 0
471 0 0 0
480 0 0 0
261 0 0 0
270 0 0 0
489 0 0 0
230 0 0 0
498 0 0 0
279 0 0 0
239 0 0 0
288 0 0 0
507 0 0 0
248 0 0 0
516 0 0 0
297 0 0 0
257 0 0 0
306 0 0 0
525 0 0 0
266 0 0 0
315 0 0 0
534 0 0 0
275 0 0 0
324 0 0 0
543 0 0 0
284 0 0 0
333 0 0 0
552 0 0 0
293 0 0 0
342 0 0 0
561 0 0 0
302 0 0 0
351 0 0 0
570 0 0 0
311 0 0 0
579 0 0 0
360 0 0 0
320 0 0 0
588 0 0 0
329 0 0 0
597 0 0 0
338 0 0 0
606 0 0 0
347 0 0 0
615 0 0 0
356 0 0 0
624 0 0 0
365 0 0 0
633 0 0 0
369 0 0 0
374 0 0 0
642 0 0 0
378 0 0 0
383 0 0 0
651 0 0 0
387 0 0 0
392 0 0 0
660 0 0 0
396 0 0 0
401 0 0 0
669 0 0 0
405 0 0 0
410 0 0 0
414 0 0 0
419 0 0 0
423 0 0 0
428 0 0 0
432 0 0 0
437 0 0 0
441 0 0 0
446 0 0 0
450 0 0 0
458 0 0 0
452 0 0 0
467 0 0 0
461 0 0 0
476 0 0 0
470 0 0 0
485 0 0 0
479 0 0 0
494 0 0 0
488 0 0 0
503 0 0 0
497 0 0 0
457 0 0 0
512 0 0 0
466 0 0 0
506 0 0 0
521 0 0 0
515 0 0 0
475 0 0 0
524 0 0 0
530 0 0 0
484 0 0 0
493 0 0 0
539 0 0 0
533 0 0 0
548 0 0 0
502 0 0 0
511 0 0 0
557 0 0 0
566 0 0 0
520 0 0 0
529 0 0 0
575 0 0 0
584 0 0 0
538 0 0 0
547 0 0 0
542 0 0 0
556 0 0 0
551 0 0 0
565 0 0 0
560 0 0 0
574 0 0 0
569 0 0 0
583 0 0 0
578 0 0 0
592 0 0 0
593 0 0 0
587 0 0 0
602 0 0 0
601 0 0 0
596 0 0 0
610 0 0 0
611 0 0 0
605 0 0 0
620 0 0 0
619 0 0 0
614 0 0 0
628 0 0 0
623 0 0 0
629 0 0 0
637 0 0 0
638 0 0 0
632 0 0 0
646 0 0 0
647 0 0 0
641 0 0 0
655 0 0 0
656 0 0 0
650 0 0 0
664 0 0 0
665 0 0 0
659 0 0 0
673 0 0 0
674 0 0 0
668 0 0 0
454 0 0 0
456 0 0 0
451 0 0 0
463 0 0 0
465 0 0 0
460 0 0 0
472 0 0 0
474 0 0 0
469 0 0 0
481 0 0 0
478 0 0 0
483 0 0 0
490 0 0 0
492 0 0 0
487 0 0 0
496 0 0 0
499 0 0 0
501 0 0 0
508 0 0 0
510 0 0 0
505 0 0 0
514 0 0 0
517 0 0 0
519 0 0 0
526 0 0 0
528 0 0 0
523 0 0 0
532 0 0 0
535 0 0 0
537 0 0 0
544 0 0 0
546 0 0 0
541 0 0 0
553 0 0 0
555 0 0 0
550 0 0 0
562 0 0 0
564 0 0 0
559 0 0 0
571 0 0 0
573 0 0 0
568 0 0 0
580 0 0 0
577 0 0 0
582 0 0 0
589 0 0 0
591 0 0 0
586 0 0 0
598 0 0 0
595 0 0 0
600 0 0 0
607 0 0 0
609 0 0 0
604 0 0 0
616 0 0 0
613 0 0 0
618 0 0 0
625 0 0 0
627 0 0 0
622 0 0 0
634 0 0 0
631 0 0 0
636 0 0 0
643 0 0 0
645 0 0 0
640 0 0 0
652 0 0 0
654 0 0 0
649 0 0 0
661 0 0 0
663 0 0 0
658 0 0 0
670 0 0 0
672 0 0 0
667 0 0 0
459 0 0 0
678 0 0 0
468 0 0 0
687 0 0 0
477 0 0 0
696 0 0 0
705 0 0 0
486 0 0 0
495 0 0 0
714 0 0 0
455 0 0 0
723 0 0 0
504 0 0 0
464 0 0 0
513 0 0 0
732 0 0 0
473 0 0 0
741 0 0 0
522 0 0 0
482 0 0 0
531 0 0 0
750 0 0 0
491 0 0 0
540 0 0 0
759 0 0 0
500 0 0 0
549 0 0 0
768 0 0 0
509 0 0 0
558 0 0 0
777 0 0 0
518 0 0 0
567 0 0 0
786 0 0 0
527 0 0 0
576 0 0 0
795 0 0 0
536 0 0 0
804 0 0 0
585 0 0 0
545 0 0 0
813 0 0 0
554 0 0 0
822 0 0 0
563 0 0 0
831 0 0 0
572 0 0 0
840 0 0 0
581 0 0 0
849 0 0 0
590 0 0 0
858 0 0 0
594 0 0 0
599 0 0 0
867 0 0 0
603 0 0 0
608 0 0 0
876 0 0 0
612 0 0 0
617 0 0 0
885 0 0 0
621 0 0 0
626 0 0 0
894 0 0 0
630 0 0 0
635 0 0 0
639 0 0 0
644 0 0 0
648 0 0 0
653 0 0 0
657 0 0 0
662 0 0 0
666 0 0 0
671 0 0 0
675 0 0 0
683 0 0 0
692 0 0 0
701 0 0 0
710 0 0 0
719 0 0 0
728 0 0 0
682 0 0 0
737 0 0 0
691 0 0 0
746 0 0 0
700 0 0 0
755 0 0 0
709 0 0 0
718 0 0 0
764 0 0 0
773 0 0 0
727 0 0 0
736 0 0 0
782 0 0 0
791 0 0 0
745 0 0 0
754 0 0 0
800 0 0 0
809 0 0 0
763 0 0 0
772 0 0 0
781 0 0 0
790 0 0 0
799 0 0 0
808 0 0 0
817 0 0 0
818 0 0 0
827 0 0 0
826 0 0 0
835 0 0 0
836 0 0 0
845 0 0 0
844 0 0 0
853 0 0 0
854 0 0 0
862 0 0 0
863 0 0 0
871 0 0 0
872 0 0 0
880 0 0 0
881 0 0 0
889 0 0 0
890 0 0 0
898 0 0 0
899 0 0 0
679 0 0 0
681 0 0 0
677 0 0 0
688 0 0 0
690 0 0 0
686 0 0 0
697 0 0 0
699 0 0 0
695 0 0 0
706 0 0 0
704 0 0 0
708 0 0 0
715 0 0 0
717 0 0 0
713 0 0 0
724 0 0 0
726 0 0 0
722 0 0 0
733 0 0 0
735 0 0 0
731 0 0 0
742 0 0 0
744 0 0 0
740 0 0 0
751 0 0 0
753 0 0 0
749 0 0 0
760 0 0 0
762 0 0 0
758 0 0 0
769 0 0 0
771 0 0 0
767 0 0 0
778 0 0 0
780 0 0 0
776 0 0 0
787 0 0 0
789 0 0 0
785 0 0 0
796 0 0 0
798 0 0 0
794 0 0 0
805 0 0 0
803 0 0 0
807 0 0 0
814 0 0 0
816 0 0 0
812 0 0 0
823 0 0 0
821 0 0 0
825 0 0 0
832 0 0 0
834 0 0 0
830 0 0 0
841 0 0 0
843 0 0 0
839 0 0 0
850 0 0 0
848 0 0 0
852 0 0 0
859 0 0 0
861 0 0 0
857 0 0 0
868 0 0 0
870 0 0 0
866 0 0 0
877 0 0 0
879 0 0 0
875 0 0 0
886 0 0 0
888 0 0 0
884 0 0 0
895 0 0 0
897 0 0 0
893 0 0 0
676 0 0 0
684 0 0 0
685 0 0 0
693 0 0 0
694 0 0 0
703 0 0 0
702 0 0 0
711 0 0 0
712 0 0 0
720 0 0 0
721 0 0 0
680 0 0 0
729 0 0 0
730 0 0 0
689 0 0 0
738 0 0 0
739 0 0 0
698 0 0 0
747 0 0 0
748 0 0 0
707 0 0 0
756 0 0 0
757 0 0 0
765 0 0 0
716 0 0 0
725 0 0 0
774 0 0 0
734 0 0 0
783 0 0 0
743 0 0 0
792 0 0 0
752 0 0 0
801 0 0 0
761 0 0 0
810 0 0 0
766 0 0 0
770 0 0 0
775 0 0 0
779 0 0 0
784 0 0 0
788 0 0 0
793 0 0 0
797 0 0 0
802 0 0 0
806 0 0 0
811 0 0 0
815 0 0 0
819 0 0 0
820 0 0 0
824 0 0 0
828 0 0 0
829 0 0 0
833 0 0 0
837 0 0 0
838 0 0 0
842 0 0 0
846 0 0 0
847 0 0 0
851 0 0 0
855 0 0 0
856 0 0 0
860 0 0 0
864 0 0 0
865 0 0 0
869 0 0 0
873 0 0 0
874 0 0 0
878 0 0 0
882 0 0 0
883 0 0 0
887 0 0 0
891 0 0 0
892 0 0 0
896 0 0 0
900 0 0 0
908 0 0 0
903 0 0 0
917 0 0 0
912 0 0 0
926 0 0 0
921 0 0 0
935 0 0 0
930 0 0 0
939 0 0 0
944 0 0 0
953 0 0 0
948 0 0 0
907 0 0 0
962 0 0 0
957 0 0 0
916 0 0 0
971 0 0 0
966 0 0 0
925 0 0 0
980 0 0 0
975 0 0 0
934 0 0 0
984 0 0 0
989 0 0 0
943 0 0 0
998 0 0 0
993 0 0 0
952 0 0 0
1002 0 0 0
961 0 0 0
1007 0 0 0
1016 0 0 0
1011 0 0 0
970 0 0 0
1020 0 0 0
979 0 0 0
1025 0 0 0
1034 0 0 0
1029 0 0 0
988 0 0 0
1038 0 0 0
997 0 0 0
1047 0 0 0
1006 0 0 0
1056 0 0 0
1015 0 0 0
1065 0 0 0
1024 0 0 0
1074 0 0 0
1033 0 0 0
1083 0 0 0
1042 0 0 0
1043 0 0 0
1052 0 0 0
1092 0 0 0
1051 0 0 0
1101 0 0 0
1060 0 0 0
1061 0 0 0
1070 0 0 0
1110 0 0 0
1069 0 0 0
1119 0 0 0
1078 0 0 0
1079 0 0 0
1088 0 0 0
1087 0 0 0
1096 0 0 0
1097 0 0 0
1106 0 0 0
1105 0 0 0
1115 0 0 0
1114 0 0 0
1124 0 0 0
1123 0 0 0
904 0 0 0
906 0 0 0
902 0 0 0
913 0 0 0
915 0 0 0
911 0 0 0
922 0 0 0
924 0 0 0
920 0 0 0
931 0 0 0
929 0 0 0
933 0 0 0
940 0 0 0
942 0 0 0
938 0 0 0
949 0 0 0
951 0 0 0
947 0 0 0
958 0 0 0
960 0 0 0
956 0 0 0
967 0 0 0
969 0 0 0
965 0 0 0
976 0 0 0
978 0 0 0
974 0 0 0
985 0 0 0
987 0 0 0
983 0 0 0
994 0 0 0
996 0 0 0
992 0 0 0
1003 0 0 0
1005 0 0 0
1001 0 0 0
1012 0 0 0
1014 0 0 0
1010 0 0 0
1021 0 0 0
1023 0 0 0
1019 0 0 0
1030 0 0 0
1028 0 0 0
1032 0 0 0
1039 0 0 0
1041 0 0 0
1037 0 0 0
1048 0 0 0
1046 0 0 0
1050 0 0 0
1057 0 0 0
1059 0 0 0
1055 0 0 0
1066 0 0 0
1068 0 0 0
1064 0 0 0
1075 0 0 0
1073 0 0 0
1077 0 0 0
1084 0 0 0
1086 0 0 0
1082 0 0 0
1093 0 0 0
1095 0 0 0
1091 0 0 0
1102 0 0 0
1104 0 0 0
1100 0 0 0
1111 0 0 0
1113 0 0 0
1109 0 0 0
1120 0 0 0
1122 0 0 0
1118 0 0 0
901 0 0 0
909 0 0 0
910 0 0 0
918 0 0 0
919 0 0 0
927 0 0 0
928 0 0 0
936 0 0 0
937 0 0 0
945 0 0 0
946 0 0 0
905 0 0 0
954 0 0 0
955 0 0 0
914 0 0 0
963 0 0 0
964 0 0 0
923 0 0 0
972 0 0 0
973 0 0 0
932 0 0 0
981 0 0 0
982 0 0 0
941 0 0 0
990 0 0 0
950 0 0 0
999 0 0 0
959 0 0 0
1008 0 0 0
968 0 0 0
1017 0 0 0
977 0 0 0
1026 0 0 0
986 0 0 0
1035 0 0 0
991 0 0 0
995 0 0 0
1000 0 0 0
1004 0 0 0
1009 0 0 0
1013 0 0 0
1018 0 0 0
1022 0 0 0
1027 0 0 0
1031 0 0 0
1036 0 0 0
1040 0 0 0
1044 0 0 0
1045 0 0 0
1049 0 0 0
1053 0 0 0
1054 0 0 0
1058 0 0 0
1062 0 0 0
1063 0 0 0
1067 0 0 0
1071 0 0 0
1072 0 0 0
1076 0 0 0
1080 0 0 0
1081 0 0 0
1085 0 0 0
1089 0 0 0
1090 0 0 0
1094 0 0 0
1098 0 0 0
1099 0 0 0
1103 0 0 0
1107 0 0 0
1108 0 0 0
1112 0 0 0
1116 0 0 0
1117 0 0 0
1121 0 0 0
1125 0 0 0
