LAMMPS data file via write_data, version 29 Aug 2024, timestep = 20000, units = metal

1125 atoms
2 atom types

-2.4643757819055008 25.388331781905507 xlo xhi
-2.084609158298109 22.16709115829832 ylo yhi
-2.025137075822439 27.826089075822164 zlo zhi
-13.926773256519633 0.09372094838695444 0.22167861727015872 xy xz yz

Masses

1 28.0855
2 15.9994

Atoms # full

3 1 1 0 0.9687477555814019 -0.49652377880421317 -1.2373952325946627 0 0 0
8 1 2 0 0.14561714750833676 0.6968757894632414 0.01207361778258198 0 0 0
15 2 2 0 3.693588977117516 0.8799885883240672 0.7250086002579867 0 0 0
10 2 1 0 1.673370726146957 0.49698365682437995 0.9465534220905165 0 0 0
17 2 2 0 5.012339302295965 0.5627500266072758 -0.6842207650135148 0 0 0
12 2 1 0 6.728663457209597 -0.2658637562264903 -0.854921640678836 0 0 0
196 22 2 0 6.9146815318369175 -1.9343888918281882 0.0616916442038824 0 1 0
1094 122 2 0 7.854503002440307 -1.4763407491374454 -1.513835515254669 0 1 1
21 3 1 0 12.88663037412271 -1.76652728168941 -0.9210487031451959 0 0 0
26 3 2 0 11.658496701079976 -0.45994099419046774 -0.852056519420306 0 0 0
29 4 1 0 16.735715221964703 0.4326190333675033 0.07078692247697838 0 0 0
35 4 2 0 17.362075534312467 -0.9655099085497998 -1.1202605873639455 0 0 0
44 5 2 0 21.684080878549956 -0.967212456183631 0.4351303818178147 0 0 0
38 5 1 0 21.005077230276264 0.8956783033856728 0.4382966827607029 0 0 0
39 5 1 0 22.896005735702097 -1.833396310204726 -0.9273200536368424 0 0 0
6 1 2 0 -3.3033457471854004 1.1932676420174455 0.723740568016829 0 0 0
2 1 1 0 -1.5703031426189447 1.5949854312017644 0.5784265539682352 0 0 0
7 1 2 0 -2.709637477625009 2.8117555199892523 -0.6761838658504842 0 0 0
53 6 2 0 -3.9137536220651343 3.76717755294899 -1.693087414940646 0 0 0
16 2 2 0 4.351764444763564 2.3273828719490153 -0.39992073849431153 0 0 0
57 7 1 0 3.539481002362824 3.5942094521136188 -1.631388059456898 0 0 0
11 2 1 0 5.649886802753619 1.4817295302131228 0.6924118847743839 0 0 0
71 8 2 0 8.65161887179902 3.614655379100431 -1.352738020751831 0 0 0
25 3 2 0 10.054967024035431 2.7423604808270294 -0.4760733929226775 0 0 0
20 3 1 0 10.94695322634016 1.0663529491556423 0.2073840496141668 0 0 0
981 109 2 0 13.623196875122987 3.3811654903732586 -0.9584591159636138 0 0 1
75 9 1 0 14.863323108807927 1.8510270275024654 -0.6763540075721133 0 0 0
80 9 2 0 14.858885626948192 3.728407048729344 -0.01232452300197906 0 0 0
34 4 2 0 16.379196518400953 2.1850561685164633 0.36489823197850146 0 0 0
84 10 1 0 19.426192299604693 3.7797224987245075 -1.044721620764065 0 0 0
43 5 2 0 20.300378488151487 2.1511830908448255 -0.8344141922679802 0 0 0
47 6 1 0 -3.152215185663009 4.794444847535792 -0.3054266763718809 0 0 0
52 6 2 0 -3.0458436808608216 6.77703373736103 -0.374094319078736 0 0 0
62 7 2 0 3.4509021812897718 4.578088171193803 -0.07237143904188126 0 0 0
56 7 1 0 2.478609457417117 6.143914748354959 0.6538700101517385 0 0 0
69 8 2 0 7.535010724645337 4.523366885030378 -0.07455504846665617 0 0 0
65 8 1 0 9.350861379353967 4.620361867903386 -0.00415513039289328 0 0 0
70 8 2 0 8.39176665476323 6.096542711637824 0.4645481097039297 0 0 0
79 9 2 0 13.117846550488258 6.897244888893026 -0.358649556005308 0 0 0
74 9 1 0 13.513618386638417 5.048858033655629 -0.03337648243538327 0 0 0
89 10 2 0 18.40655534508948 5.200978194488433 -0.3651001995462193 0 0 0
88 10 2 0 19.89900579552576 5.576541699161793 -1.136375519332147 0 0 0
83 10 1 0 19.77563367885196 5.618186856627039 0.7898547318520235 0 0 0
98 11 2 0 -5.034415360308183 9.597197205009733 -1.2579521380721397 0 0 0
93 11 1 0 -3.7579338214085425 8.185004920995132 -1.6246229129030425 0 0 0
102 12 1 0 1.1126275835161912 7.564647020769282 -1.054611546240975 0 0 0
107 12 2 0 0.7300536517224354 9.07826488919561 0.0019115782773249101 0 0 0
61 7 2 0 2.3306847981067076 8.007831999409643 0.18650939681856826 0 0 0
1008 112 2 0 2.062872166655655 9.14910808491592 -1.309430911176526 0 0 1
111 13 1 0 6.04114519714504 8.006116032592272 -1.6635991198929 0 0 0
116 13 2 0 6.226282910046901 9.038487945550427 -0.21654642427836213 0 0 0
1017 113 2 0 7.125906839883607 9.46221134723669 -1.8252071020263232 0 0 1
120 14 1 0 11.900724378325846 8.579907377407505 -1.1000996927690359 0 0 0
125 14 2 0 10.890199734198879 10.106278088889233 -0.17524397999943098 0 0 0
1026 114 2 0 13.715308229603556 8.40957518238885 -1.383368048500963 0 0 1
134 15 2 0 17.261118605536957 9.551747430449444 -0.8957018515169954 0 0 0
92 11 1 0 -5.428169329009445 10.897614420750273 0.0973898892790821 0 0 0
97 11 2 0 -6.190233616128503 11.923273743815642 -1.3440068453409058 0 0 0
1004 112 2 0 -1.8891185318688328 11.279067140011286 -2.0213526141864064 0 0 1
147 17 1 0 -1.4043882332107442 12.899256724195903 -1.1002240142048243 0 0 0
106 12 2 0 -0.7850609602472867 11.294173140477888 -0.40305881594218373 0 0 0
161 18 2 0 2.462084423566502 12.312741017635421 0.6032316909220912 0 0 0
115 13 2 0 4.105531555054951 11.67484135883784 0.6044504701603914 0 0 0
156 18 1 0 3.4767548959218164 12.509962981939983 -1.0365597354031242 0 0 0
124 14 2 0 9.949156521491467 11.687955026219203 -0.44166251759507436 0 0 0
1022 114 2 0 7.646635785257944 12.028867111428218 -1.5481249954260359 0 0 1
119 14 1 0 11.423537307651712 11.631360627485206 0.7901832531945909 0 0 0
133 15 2 0 14.847575452974295 12.042837510749115 -0.12253917895292754 0 0 0
128 15 1 0 16.13771505622303 10.766220870953516 0.13668638188804927 0 0 0
94 11 2 0 17.782220660945548 10.341778960139681 0.9062983872332651 -1 0 0
141 16 2 0 -11.121101515057239 14.962607541997814 0.9093224445768504 0 0 0
143 16 2 0 -7.949339258082138 14.802157158794815 -0.22414632229688114 0 0 0
137 16 1 0 -9.35087745471704 15.672882537310882 0.6953760185569786 0 0 0
138 16 1 0 -7.36990931692779 13.503048296827432 -1.563040911547973 0 0 0
152 17 2 0 -2.0709687952766225 14.489554908400807 -0.2994331814295965 0 0 0
146 17 1 0 -2.9494731655800854 15.70419655474013 0.8932132763620109 0 0 0
1053 117 2 0 -0.9780697004586258 14.549267434757565 -1.9046351804615007 0 0 1
170 19 2 0 7.579313462069104 13.283676054500829 -0.09961939851036683 0 0 0
165 19 1 0 9.043934488491901 13.286092212827462 -1.2419046919784575 0 0 0
164 19 1 0 8.365074439443232 14.675548248589395 0.8185436210673642 0 0 0
179 20 2 0 12.655170357098584 13.243725601451915 0.21638389899802357 0 0 0
173 20 1 0 13.222531346556416 15.15336012796069 0.35178252772550156 0 0 0
174 20 1 0 13.89234786680442 13.266128071533691 -1.2847204320604704 0 0 0
188 21 2 0 -10.814509039920658 18.983632559044814 0.34385125633696756 0 0 0
183 21 1 0 -9.734151481479032 17.659388830405135 -0.9925062143058372 0 0 0
142 16 2 0 -8.133914752262044 16.69787589346388 -0.13585932004176415 0 0 0
192 22 1 0 -4.40164242582028 17.86745103829363 -1.579581997599189 0 0 0
151 17 2 0 -3.9253628288687876 16.27466666384838 -0.5827149290594724 0 0 0
206 23 2 0 -0.5162326985762089 19.056479155741187 -0.4437094337655174 0 0 0
160 18 2 0 3.782627131236869 16.921235125152954 0.656599092176644 0 0 0
201 23 1 0 2.831903585304908 17.283027082767816 -0.8373726405268354 0 0 0
215 24 2 0 6.13559715233251 18.9454283802839 -1.1622270090991518 0 0 0
169 19 2 0 7.500454498521814 17.63259077146361 -1.2797700559265461 0 0 0
178 20 2 0 12.641262018971927 16.622621627157045 -0.8935014880942809 0 0 0
219 25 1 0 11.906055884500036 18.145642081898103 -1.6165476450421439 0 0 0
187 21 2 0 -11.200439857916635 20.64241031406447 0.5750360727186599 0 0 0
197 22 2 0 -5.053579055309484 19.346019253175733 -0.7993311735713131 0 0 0
205 23 2 0 0.03582031044556855 20.86257517564296 -0.5775962403985222 0 0 0
200 23 1 0 -1.1750122742963571 20.3654860388885 0.5289421801685985 0 0 0
211 24 2 0 0.4649340762077028 19.63753161001336 0.7729497571219026 0 0 0
214 24 2 0 4.512763394620529 21.71643113675355 -1.0174832966131035 0 0 0
209 24 1 0 5.210477512398366 20.264897176272065 -0.028225413039375535 0 0 0
218 25 1 0 10.03796316974088 20.475871354747603 0.49458428278381605 0 0 0
223 25 2 0 8.513268264030808 21.49511533231943 0.6615609895485113 0 0 0
224 25 2 0 11.382998928806154 19.713221117201456 -0.642785284699058 0 0 0
185 21 2 0 -0.1348188759130755 -1.8855731601097343 2.9619493148295533 0 1 0
228 26 1 0 1.5678604791538078 -0.9804952410337602 3.072251802829684 0 0 0
9 1 2 0 2.9355503582189373 -0.2841415236750362 2.0767960384758766 0 0 0
412 46 2 0 3.3234387694821965 -1.2127809856954734 3.592231831438877 0 1 0
18 2 2 0 7.245985932002837 0.6737311047851771 3.814874086131727 0 0 0
33 4 2 0 15.143345112525102 0.8518223886971938 0.985459244650126 0 0 0
27 3 2 0 14.258781428224149 -0.46198272931548257 2.863472793230587 0 0 0
212 24 2 0 16.429840608755875 -1.317346682539843 3.7735909322903503 0 1 0
36 4 2 0 19.820716674930814 -0.6591542912787289 3.488606526089563 0 0 0
42 5 2 0 20.78311186210771 -0.16368310683487985 1.9104336163060829 0 0 0
1 1 1 0 -3.406969019254271 1.4979898770968387 2.479686915623085 0 0 0
5 1 2 0 -2.794337953535817 2.861099386571201 3.7779476285599856 0 0 0
13 2 2 0 0.16516840133710087 1.8569762181764187 1.2855064726365342 0 0 0
22 3 2 0 6.800546187983034 1.6566390518845098 2.2182993492394694 0 0 0
19 3 1 0 8.503071560335624 1.6876040587195282 2.9428177791074797 0 0 0
24 3 2 0 10.125176947664889 1.534328283156872 1.768355284200497 0 0 0
23 3 2 0 10.089749976599258 2.7883134823781868 3.199694962723794 0 0 0
31 4 2 0 11.927442245381217 1.8465401519525653 1.7054756580298038 0 0 0
28 4 1 0 13.67031130742251 1.3370234435584072 2.6420586835828397 0 0 0
32 4 2 0 14.409707293938384 2.889943449114468 3.770314220811115 0 0 0
81 9 2 0 16.147932490616626 3.739866169148878 3.6534538574776665 0 0 0
37 5 1 0 19.395086391621028 1.0132262500267113 2.4428868060450855 0 0 0
40 5 2 0 17.60532253717564 1.2579888884882964 1.4855262479468192 0 0 0
41 5 2 0 19.630851497479448 2.8765875451727574 3.1352716002897694 0 0 0
4 1 2 0 22.825128923722247 1.0004606709662598 1.3857394526411726 -1 0 0
49 6 2 0 -7.391117425387236 6.877835164972829 2.0820209137151107 0 0 0
46 6 1 0 -5.824634443057404 6.057366429442796 1.8101849031219999 0 0 0
58 7 2 0 -2.201256282355427 5.853586220126325 0.9700549880942742 0 0 0
51 6 2 0 -4.0820538665251 5.812631135981163 0.9693325497041339 0 0 0
54 6 2 0 0.17643133901965546 5.112367752513427 3.5873050157270336 0 0 0
55 7 1 0 -0.7798810899558548 5.858283952750462 2.29913417983121 0 0 0
60 7 2 0 1.1439702153546727 5.80650301324664 2.108914131227574 0 0 0
59 7 2 0 0.33436040297736547 7.008670388424221 3.3768241473485077 0 0 0
64 8 1 0 4.356619789372061 4.820482140666057 3.425016999515334 0 0 0
67 8 2 0 3.3100656298989417 4.936976858229911 1.7941044955190928 0 0 0
76 9 2 0 10.046293848958644 5.852632165370694 1.3469364753276118 0 0 0
72 8 2 0 10.335261181478122 4.6777951969684635 3.4242427126079598 0 0 0
78 9 2 0 12.419714944721251 5.989535354672677 1.1982114301548572 0 0 0
73 9 1 0 11.292524946892534 6.155198931449915 2.685058398890395 0 0 0
85 10 2 0 16.011573846772023 6.868578452414498 1.8918943253821712 0 0 0
82 10 1 0 16.55712643108444 5.433179484224904 2.802150122989831 0 0 0
87 10 2 0 17.505412976981702 5.9322643713333285 1.1464922064762924 0 0 0
90 10 2 0 20.629196244784637 4.977424450661678 2.465726598937744 0 0 0
50 6 2 0 -4.761049610037299 7.249239221956678 2.9952278518490605 0 0 0
99 11 2 0 -3.3900803707265643 8.56422925214412 3.2456843205166823 0 0 0
105 12 2 0 -1.992166107230522 9.57616188837738 2.311484629155867 0 0 0
101 12 1 0 -0.5054885747545996 10.123389951290692 1.07901099791316 0 0 0
108 12 2 0 2.453340126624317 9.850522025996838 3.409703092398323 0 0 0
114 13 2 0 4.224440529092789 9.945111298306724 2.694382874729847 0 0 0
121 14 2 0 6.679570627979542 10.145412636202025 2.518808031936847 0 0 0
117 13 2 0 7.539786078722612 8.98627065848431 3.840148255617419 0 0 0
77 9 2 0 11.846740759042019 7.677551244302524 3.660492610823858 0 0 0
86 10 2 0 17.099093735898997 7.199858036511062 3.4237008155481528 0 0 0
91 11 1 0 -8.552754278828322 10.936537025319288 1.8798115168502485 0 0 0
95 11 2 0 -8.040281032522701 12.505055867491174 2.9426653296633454 0 0 0
96 11 2 0 -6.715787650462438 11.169159199464872 1.3867598448924823 0 0 0
103 12 2 0 -4.886955856327227 11.351349244505464 1.8160967301129376 0 0 0
100 12 1 0 -3.472292703378387 10.502710731641129 3.0946354885434166 0 0 0
104 12 2 0 -2.120539019295512 11.81247613617585 3.868506665442311 0 0 0
112 13 2 0 1.0768171700856963 11.226690785342463 1.3179035710753522 0 0 0
109 13 1 0 2.935600409214147 11.103823776470799 2.0004207622800454 0 0 0
113 13 2 0 3.6310811471707956 11.305315985904452 3.8909732731919355 0 0 0
110 13 1 0 5.268815948149659 10.152741978776554 1.144826354572253 0 0 0
122 14 2 0 7.442652900460061 11.282634165711587 3.7751706127562805 0 0 0
118 14 1 0 8.602149287859014 10.379397686903445 2.7099785666617793 0 0 0
123 14 2 0 9.845198331355357 10.79739719004683 1.2377942282206904 0 0 0
130 15 2 0 13.198575858195735 11.760206623360116 1.9327200031327423 0 0 0
127 15 1 0 13.958035226491619 10.485068330214549 3.048708832420189 0 0 0
132 15 2 0 14.923820516547321 11.012010622414762 1.5130736303239538 0 0 0
131 15 2 0 14.258555446513887 12.250500901730593 3.473338527484012 0 0 0
135 15 2 0 18.22370296164427 10.272815139267243 3.3384698248217424 0 0 0
136 16 1 0 -11.258928448366465 15.938592511610617 2.4199374787197314 0 0 0
148 17 2 0 -7.515768618793774 15.753634058184305 1.3781655200317013 0 0 0
144 16 2 0 -7.196287611314777 14.208065217785043 3.3104084720968725 0 0 0
150 17 2 0 -4.619707307258594 16.1468699551302 1.6284951837888504 0 0 0
145 17 1 0 -6.101575326097203 15.754325669392104 2.695782006658887 0 0 0
157 18 2 0 -1.1217176364538282 15.775979304991376 1.6427866485875402 0 0 0
153 17 2 0 -0.3961677291324328 14.815656042262757 3.2036109080815205 0 0 0
159 18 2 0 0.7199292751160273 15.342890415301264 1.7754804572651803 0 0 0
166 19 2 0 4.150277094633336 16.114116103562104 2.3403533608048512 0 0 0
168 19 2 0 6.756159740883321 14.006477972805035 1.4710568458067552 0 0 0
163 19 1 0 5.332423849344982 14.402060353167686 2.7027701930155175 0 0 0
175 20 2 0 9.747130196316364 15.952677759400443 1.1254309922348642 0 0 0
172 20 1 0 10.318017515298038 14.902530864199813 2.424483658115782 0 0 0
171 19 2 0 10.021649813032147 13.634333873589938 3.8565868112791657 0 0 0
177 20 2 0 11.635740978630803 15.625116652325238 1.305528163994722 0 0 0
180 20 2 0 15.193278321952159 15.131971479576718 3.4591352074556134 0 0 0
139 16 2 0 15.005476560319407 15.474832139797547 1.5544541474656244 -1 0 0
186 21 2 0 -13.578564533500762 18.84876189340526 2.5836290195294636 0 0 0
140 16 2 0 -10.521317247400876 16.93765413097531 3.8987197883517464 0 0 0
149 17 2 0 -4.989933523379358 16.868838130787772 3.814493810357778 0 0 0
154 18 1 0 0.08215463685541025 16.60314623170064 2.7881726607721298 0 0 0
155 18 1 0 2.280477433562303 16.362006289452523 1.4094107902905866 0 0 0
217 25 1 0 7.086586423550175 18.558757867540656 2.58947470871661 0 0 0
435 49 1 0 5.694802094052527 16.66629323898473 3.685869430814165 0 0 0
216 24 2 0 7.431751593031684 17.169944194714844 3.681092558525025 0 0 0
176 20 2 0 10.771691476237715 16.793272157172325 2.5195201930341966 0 0 0
225 25 2 0 12.416587571499788 19.053934296352935 2.943061520276734 0 0 0
444 50 1 0 10.888591975435133 18.288976566868577 3.627797600854353 0 0 0
181 21 1 0 -14.381253319897496 20.45731725414482 2.280809424085607 0 0 0
182 21 1 0 -12.05844540101128 19.50854150185114 1.6536924577304832 0 0 0
193 22 2 0 -10.195063917209595 19.742302572906198 1.9327080787773805 0 0 0
190 22 1 0 -8.530732665564862 19.888551405579193 2.972377497541528 0 0 0
195 22 2 0 -6.667288836063797 19.787564948012893 2.5111202270587727 0 0 0
191 22 1 0 -6.912366229891668 21.40054835409245 1.706280650855573 0 0 0
194 22 2 0 -7.136597752380158 20.993988057590727 3.4071975305889275 0 0 0
202 23 2 0 -5.3390391860140545 21.134320708362218 2.8212792370520816 0 0 0
198 22 2 0 -3.1184504169907297 19.82574305917567 3.51298817932729 0 0 0
199 23 1 0 -3.547755385608768 21.570315619772828 3.1198019610108263 0 0 0
204 23 2 0 -2.7731028163578864 20.55493050705602 1.795077975565878 0 0 0
207 23 2 0 3.4746951247845503 19.596732281122208 3.0505971341587665 0 0 0
208 24 1 0 2.9441894993975017 21.25559830213743 2.959855512475931 0 0 0
213 24 2 0 4.18486522065253 20.526109291264703 1.5857496070406478 0 0 0
220 25 2 0 6.547456915354946 19.87913837494746 1.250786166728456 0 0 0
222 25 2 0 8.42400353110997 19.73890818959223 1.4107164055636896 0 0 0
184 21 2 0 11.904979380516833 20.54472841534836 1.028642554403775 -1 0 0
45 5 2 0 -3.7981995905938954 0.8288096281952 4.206433751126476 1 0 0
233 26 2 0 0.02818711448710287 -0.49727486275864985 4.2262537265434315 0 0 0
242 27 2 0 5.170460859974296 -0.3570758981229305 6.5615804085055345 0 0 0
237 27 1 0 6.424876372532978 -0.07716971752645474 5.291676817603622 0 0 0
203 23 2 0 11.334788564768026 -1.269036096321611 4.327560185998765 0 1 0
246 28 1 0 12.948002630618316 -0.39527086918548915 4.2985939160463245 0 0 0
251 28 2 0 11.784387634115017 0.005286379094676885 5.702448208536397 0 0 0
430 48 2 0 12.634877600404911 -1.6799049896218825 5.6966495356408196 0 1 0
255 29 1 0 18.180622992814627 -1.4526711825279457 4.498886008802066 0 0 0
260 29 2 0 16.797807641745642 -0.31130706495878435 5.386831069348274 0 0 0
264 30 1 0 23.757835454274584 -0.9963728683407591 4.97053814027167 0 0 0
269 30 2 0 22.940508536213933 0.5535783952463689 5.727628567392857 0 0 0
273 31 1 0 -1.3506351290888432 3.9971819764605145 3.977586476099951 0 0 0
231 26 2 0 -1.3616736533759932 1.3844274325230392 6.870833384973656 0 0 0
227 26 1 0 0.022833446971249227 1.0042856344720197 5.531676647546734 0 0 0
232 26 2 0 -1.0717363246434866 2.6224405046247536 5.485052949896479 0 0 0
238 27 2 0 0.33949382955007223 2.2413355222835447 6.754701773474855 0 0 0
14 2 2 0 1.61829700219731 2.425034410096532 5.347599717094674 0 0 0
287 32 2 0 1.9886166397203233 3.7153255157982237 6.6944108390634565 0 0 0
282 32 1 0 3.420957719442276 3.7517561965565456 5.537102437655306 0 0 0
235 27 1 0 2.1506426119255195 1.7475357978673989 6.909046748996218 0 0 0
241 27 2 0 5.408712928304025 3.159711691663184 6.4678373764204 0 0 0
250 28 2 0 9.792339719480351 2.737487181613872 6.298908095178907 0 0 0
291 33 1 0 9.318634662024161 3.5694378111681315 4.633136801069106 0 0 0
245 28 1 0 10.841552019203428 1.235840953673394 6.911087015772299 0 0 0
254 29 1 0 16.42571321552827 1.3476177535443083 6.396754353867454 0 0 0
259 29 2 0 15.697016751438314 2.781512221489712 5.178862224780371 0 0 0
263 30 1 0 21.456139395274803 1.1792980788093321 6.841719796749752 0 0 0
268 30 2 0 21.34636863517757 2.8385951856639986 5.36666791350091 0 0 0
278 31 2 0 -2.947004354158844 4.458481280164629 4.8737149019855455 0 0 0
272 31 1 0 -3.178138878798644 6.106277683206212 6.1671053484199785 0 0 0
281 32 1 0 2.3169988545605795 5.627615484170825 6.604654911771428 0 0 0
68 8 2 0 5.950220842429809 5.609823986909634 3.9902442420730786 0 0 0
63 7 2 0 5.125181376593277 4.067249262996004 4.8275406897505 0 0 0
296 33 2 0 8.984095229048542 4.794936534512308 6.015137432950487 0 0 0
290 33 1 0 8.611248354480116 6.596434556299156 6.308854062757256 0 0 0
299 34 1 0 13.16797380799788 6.729139320348313 6.83753508865253 0 0 0
300 34 1 0 14.917386947226875 4.422080099653929 4.668290321624816 0 0 0
305 34 2 0 14.33574675629601 5.961700611606366 5.656433591491127 0 0 0
309 35 1 0 20.34706959623702 4.102121864796567 4.348641931119592 0 0 0
314 35 2 0 20.956089206193695 4.593994331231684 5.961872086282533 0 0 0
308 35 1 0 19.704997200153038 5.889323890380855 5.969202531236716 0 0 0
318 36 1 0 -4.826002541291061 8.673314782512655 4.358839788462123 0 0 0
323 36 2 0 -6.362565126553809 9.54588392538209 5.1099313716403 0 0 0
277 31 2 0 -3.642612014644845 7.19309417928717 4.550794543847532 0 0 0
327 37 1 0 1.3600920701645838 8.449819389040904 4.440414977548669 0 0 0
332 37 2 0 0.37793223375161444 10.067554810876391 4.975752234004065 0 0 0
286 32 2 0 2.157197953474973 7.365387911662973 5.959978857700973 0 0 0
336 38 1 0 6.745699795150687 7.269184378035925 4.623684258237655 0 0 0
341 38 2 0 5.967469333136036 8.693751672154233 5.760843513344353 0 0 0
295 33 2 0 7.924089874837081 8.175211865004043 5.537051865239872 0 0 0
126 14 2 0 13.225030351717221 8.95084927631741 3.9653445747814304 0 0 0
345 39 1 0 11.93825074090504 8.548512622520528 5.331923086194488 0 0 0
350 39 2 0 10.913986691818671 9.95393340062639 6.425373036357891 0 0 0
304 34 2 0 13.689650123166787 7.740534771758506 5.396263812429635 0 0 0
310 35 2 0 14.920908041456363 7.373880788309853 6.826598125750552 0 0 0
354 40 1 0 17.843570664454703 8.738851512298238 4.340925944548025 0 0 0
313 35 2 0 18.647080677650152 7.232222601291619 5.1338927383404265 0 0 0
363 41 1 0 -7.372177838498788 12.98305207047491 4.60758582624381 0 0 0
317 36 1 0 -5.339905456660356 10.378467078064308 6.22813014624513 0 0 0
322 36 2 0 -6.713804542612217 11.3794401774141 5.525333909615021 0 0 0
331 37 2 0 -0.5725546563641521 11.680760316459283 4.943975195096549 0 0 0
326 37 1 0 0.017248324483957855 11.037454422848917 6.684186814165997 0 0 0
381 43 1 0 4.285850525262644 11.964522626104758 5.620905858148618 0 0 0
349 39 2 0 10.066809883416013 11.568965080679574 6.054412515549373 0 0 0
390 44 1 0 8.943338217984875 12.249910800258212 4.455006637437352 0 0 0
358 40 2 0 15.990631936960044 12.269701654661102 5.4270854353631774 0 0 0
359 40 2 0 17.38185169959643 10.490346455256175 5.03290116484662 0 0 0
353 40 1 0 16.75419719711796 11.207854808244544 6.716854191323156 0 0 0
368 41 2 0 -8.819141237024152 13.76953152582562 4.076581634153343 0 0 0
377 42 2 0 -2.117285616942975 14.912126244663314 5.181500323931925 0 0 0
371 42 1 0 -2.4753941792572545 15.802378385181585 6.775230170129031 0 0 0
372 42 1 0 -1.2170604960142901 13.444493448696827 4.349929204150788 0 0 0
167 19 2 0 4.455578367935689 15.233230709223482 3.9869075755933405 0 0 0
162 18 2 0 4.51965284313586 13.350694162867187 4.229326006702896 0 0 0
394 44 2 0 6.975806110507804 16.259995030819624 5.367896107265888 0 0 0
395 44 2 0 9.116520731552754 13.763601651409248 5.616777847905927 0 0 0
389 44 1 0 8.119869476214754 15.10883999091435 6.5827279656722 0 0 0
398 45 1 0 13.291835339933115 14.49436089458507 6.449622919248036 0 0 0
403 45 2 0 13.020424847319978 16.2637896029632 6.300132371252147 0 0 0
399 45 1 0 14.842303184028244 13.635048152704591 4.653271901464551 0 0 0
404 45 2 0 14.311278266240167 15.367258823074662 5.169823621834094 0 0 0
189 21 2 0 -9.661522833284721 18.607385783563593 4.192284413824126 0 0 0
408 46 1 0 -9.261985786851543 17.18150212048421 5.2645412684036055 0 0 0
367 41 2 0 -7.711029391320366 16.44077636612473 6.1473673536044515 0 0 0
413 46 2 0 -10.242103849642124 18.820114781859047 6.043345861908552 0 0 0
422 47 2 0 -5.177803933536891 17.694844347627203 5.497455934772003 0 0 0
416 47 1 0 -4.904351225150281 19.276056180501293 6.551756975563656 0 0 0
417 47 1 0 -3.8362299067482137 18.236643356432992 4.484447512341188 0 0 0
376 42 2 0 -3.0987142479133105 16.550459050808314 5.013685267393781 0 0 0
158 18 2 0 0.5705298410045714 18.075538868519985 4.135547345363552 0 0 0
385 43 2 0 1.6755511480327892 18.024463739852806 5.698677129192057 0 0 0
426 48 1 0 2.125673802852279 19.21060831160066 4.270891635427908 0 0 0
440 49 2 0 6.542662942544839 18.21571224636149 4.35666827447013 0 0 0
411 46 2 0 -13.606201630626254 19.810668705266764 6.912006708094369 0 0 0
421 47 2 0 -5.1779569662143885 21.064261995872258 6.440671949799205 0 0 0
431 48 2 0 0.6662368611038456 19.560480160412546 5.354073239746264 0 0 0
425 48 1 0 -0.35103035683219863 20.94448703603831 6.3182363630697775 0 0 0
439 49 2 0 5.921497120997508 22.146727351273 4.725776287008521 0 0 0
434 49 1 0 5.228535900962 21.304387357619312 6.181703991976388 0 0 0
443 50 1 0 9.605049414366034 20.9501602755035 5.826486352071077 0 0 0
221 25 2 0 9.480174575182982 21.601493411866038 4.185490430740721 0 0 0
449 50 2 0 10.428472251274089 19.88426621120729 4.4463462881787175 0 0 0
448 50 2 0 10.876450809472765 21.73541047465696 4.8974040998415775 0 0 0
240 27 2 0 3.7919056481654936 0.6498822876506116 7.332192111324044 0 0 0
428 48 2 0 10.749751100225259 -1.1183563423657703 9.70547700353223 0 1 0
252 28 2 0 13.255090001922033 0.199752167070113 9.253741846672881 0 0 0
258 29 2 0 15.861600601566684 -0.1887012386453868 7.047482205217923 0 0 0
253 29 1 0 14.498402489097282 0.7589046548407015 7.988565176574344 0 0 0
261 29 2 0 18.805596315470133 0.33035738659953573 9.050072130367484 0 0 0
267 30 2 0 19.756622859682594 0.4350526258458478 7.404407464878737 0 0 0
270 30 2 0 23.991823093008982 0.0671886453885735 9.21453443024337 0 0 0
226 26 1 0 -2.8344555059453302 1.5136657676334289 8.48832340050426 0 0 0
230 26 2 0 -2.164714924686459 3.0220385803817162 9.790997852202185 0 0 0
236 27 1 0 5.6508660020760075 1.3070264266708551 7.106600678481287 0 0 0
247 28 2 0 6.562651509982915 2.770301996585629 7.937306913378885 0 0 0
244 28 1 0 7.546697964908612 1.3614005447464286 8.808600144313816 0 0 0
249 28 2 0 9.199034427991961 1.6913437459553724 7.812173555765494 0 0 0
248 28 2 0 8.377777844716608 2.933379022016557 9.644351541530137 0 0 0
256 29 2 0 12.632988446673119 1.1804955190246278 7.728932581798212 0 0 0
257 29 2 0 14.255336285795822 1.8177406963611538 9.546623943129013 0 0 0
265 30 2 0 17.99877800811796 1.1522626451822364 7.497802699079601 0 0 0
262 30 1 0 19.47596863183839 1.8916894504801394 8.294516942459708 0 0 0
266 30 2 0 20.059362902907324 3.3934025754209847 9.405513394517033 0 0 0
229 26 2 0 23.269750193497515 1.232461875118514 7.856387642987196 -1 0 0
274 31 2 0 -6.607419182024782 6.010487403427721 7.2002774890202605 0 0 0
271 31 1 0 -5.795434188545051 6.368722104377516 8.81563790614589 0 0 0
276 31 2 0 -4.1725375698091804 6.299227904298009 7.771619118440775 0 0 0
283 32 2 0 -2.2883710340180365 6.432534596327079 7.719875457497958 0 0 0
285 32 2 0 1.1867837738207436 5.820156475814351 8.042731000731049 0 0 0
279 31 2 0 0.5064787554863832 5.356057860244541 9.746003495216664 0 0 0
280 32 1 0 -0.6543573063997004 6.238533785656426 8.719225303480751 0 0 0
292 33 2 0 3.259358395288511 7.005195786851994 7.4583551566735515 0 0 0
294 33 2 0 6.153263136559785 6.472366441601741 9.064921160275905 0 0 0
301 34 2 0 9.819057765884391 6.060690569303093 7.730582817800688 0 0 0
303 34 2 0 11.739348047067562 6.025370712916001 7.983391735437676 0 0 0
298 34 1 0 10.670067860462702 6.4961398005096225 9.458764381016808 0 0 0
312 35 2 0 18.005413537677363 6.226156315458422 7.1727833315366265 0 0 0
306 34 2 0 17.03309908585519 5.701589452827006 8.66483999581152 0 0 0
360 40 2 0 -8.273188162051326 9.249896081799228 8.152604135295181 1 0 0
284 32 2 0 0.5225734370875599 7.3540426720595455 9.74669428941629 0 0 0
333 37 2 0 1.2646324162845604 9.17221013829207 9.580163210131385 0 0 0
289 33 1 0 4.477905006448459 7.140418674943428 9.026488992871574 0 0 0
335 38 1 0 5.252248008727776 10.141979972506613 6.959363408879396 0 0 0
351 39 2 0 13.214824304192655 9.161931819341094 9.533895171640335 0 0 0
307 35 1 0 16.532419884754447 7.314907994746678 8.085890103076261 0 0 0
579 65 1 0 18.096408524254983 9.14210280174478 9.278108266427669 0 0 0
538 60 2 0 18.177424202945275 7.194705215926474 8.87056270125869 0 0 0
311 35 2 0 16.70872947290762 7.914938643029956 9.828725058853186 0 0 0
316 36 1 0 -8.087012274014196 10.908680745149077 8.75547524674088 0 0 0
319 36 2 0 -9.592228140646174 10.49499379808658 7.670900265383887 0 0 0
321 36 2 0 -7.185539921617886 10.237187751810927 6.953062159325359 0 0 0
320 36 2 0 -7.366531685315652 12.311643530732992 9.83536293624628 0 0 0
328 37 2 0 -3.6664472685742804 10.73395373034698 7.220923343359365 0 0 0
330 37 2 0 -1.6263332072518328 11.09867798647243 8.09687693615067 0 0 0
325 37 1 0 -2.9564624876155006 10.317059067881427 8.97518933212841 0 0 0
329 37 2 0 -2.9919124279704743 12.009235810344357 8.48339687640806 0 0 0
597 67 1 0 -1.599090827381135 12.189032101216892 9.758418933782332 0 0 0
337 38 2 0 1.459218690842469 12.092717760488652 7.673390012509595 0 0 0
339 38 2 0 3.5266688335599587 10.933299980089565 7.23908690921939 0 0 0
334 38 1 0 1.855714573394625 10.351394487538007 8.194837620193367 0 0 0
346 39 2 0 6.372553261719368 11.054230304047705 8.392829840672418 0 0 0
340 38 2 0 5.081643336495802 11.875428397539714 7.24448779486907 0 0 0
348 39 2 0 9.847414606284323 10.728672444395889 7.745394017562154 0 0 0
343 39 1 0 8.248105962415439 10.65914421222873 8.975972296543338 0 0 0
344 39 1 0 11.416811764150546 11.487218921190342 7.361954437538465 0 0 0
355 40 2 0 13.24605580391435 12.297398821893955 7.691139946354509 0 0 0
357 40 2 0 14.996966851677952 11.493535268627864 7.547528853516335 0 0 0
352 40 1 0 13.540593735437687 10.812296528291633 8.716569986062646 0 0 0
356 40 2 0 14.444274797347083 12.407265263558159 9.17723261092989 0 0 0
361 41 1 0 -12.185175280116306 15.838046240509437 8.86082908703104 0 0 0
366 41 2 0 -10.387322293098153 15.908895639622605 8.48638553903351 0 0 0
362 41 1 0 -8.832483368838151 15.727877720860155 7.278254772818229 0 0 0
373 42 2 0 -7.055443078160479 15.449689817189553 7.610065923152574 0 0 0
370 42 1 0 -5.4541492101852755 15.494506379282486 8.822413891195767 0 0 0
369 41 2 0 -6.439684263601286 13.976139209363007 9.641551435094225 0 0 0
375 42 2 0 -3.598995087453118 15.819643418123048 8.354195937168578 0 0 0
386 43 2 0 2.78309364188498 14.991635635812765 6.979028009137055 0 0 0
384 43 2 0 2.0385886002812876 15.767978025264119 8.56221089249765 0 0 0
391 44 2 0 3.769445759211326 16.161699366410694 7.921271510173668 0 0 0
393 44 2 0 6.463494000110796 15.744920501391539 7.125749445741061 0 0 0
388 44 1 0 5.564106334149862 16.199000555959834 8.824685161919472 0 0 0
400 45 2 0 9.829210017023854 15.082565763190795 7.419279346672722 0 0 0
402 45 2 0 11.697795913263752 15.38345826733533 7.378873907470835 0 0 0
397 45 1 0 10.798168073382872 15.015088949102902 9.014410295666746 0 0 0
364 41 2 0 14.190923635896995 15.754308766633317 7.54089137835196 -1 0 0
365 41 2 0 -11.13474320133566 16.95940216867335 9.871337343395597 0 0 0
374 42 2 0 -4.593091952370776 16.864803498687515 9.574837372798564 0 0 0
382 43 2 0 -1.4012433895320782 16.53431903952896 8.178973525220613 0 0 0
379 43 1 0 0.374867036148963 16.663261233924878 8.805309636257396 0 0 0
383 43 2 0 -0.8143693633644549 17.859985997848483 9.361651330852709 0 0 0
380 43 1 0 2.176007895036684 16.775212750993703 7.108660449554161 0 0 0
660 74 1 0 6.936045357107133 18.150437161648043 9.829903400904984 0 0 0
409 46 2 0 -15.122067631761178 20.484298252345468 7.827217320255439 0 0 0
406 46 1 0 -13.460977269664397 20.880435823149107 8.255669064251657 0 0 0
407 46 1 0 -11.751353272614883 19.602660548845876 6.936348596282773 0 0 0
410 46 2 0 -12.583248877471176 22.10601070299346 9.509437857279668 0 0 0
418 47 2 0 -10.090326324108846 19.673778252640204 7.723148005179024 0 0 0
415 47 1 0 -9.196766302495746 19.916279587862313 9.342487719325838 0 0 0
420 47 2 0 -5.887130729866046 20.1526240093645 7.775114222967019 0 0 0
427 48 2 0 -3.994983565388303 20.441322483152568 7.75335742618644 0 0 0
429 48 2 0 -1.7600920228711414 20.975289337254218 7.458784618813214 0 0 0
424 48 1 0 -2.737372902704876 21.347144833520034 9.10833024834753 0 0 0
436 49 2 0 0.7011297222455548 20.67002418016221 7.793506011708974 0 0 0
432 48 2 0 1.1763155645988883 20.089996448042484 9.541061692486313 0 0 0
433 49 1 0 2.524374636079 20.800810146516476 8.524302046173183 0 0 0
438 49 2 0 4.1748097490838125 21.059256711649553 7.699366548443969 0 0 0
437 49 2 0 3.0562074167954867 21.990046545640574 9.899503101877661 0 0 0
445 50 2 0 6.098443675902164 20.99252760746549 7.914003345615468 0 0 0
441 49 2 0 7.372287468006036 19.75818623369912 8.630444069432864 0 0 0
447 50 2 0 8.54996166295914 20.735405620569914 7.459743558349789 0 0 0
442 50 1 0 7.639174117473027 21.53563897330301 8.829798149723747 0 0 0
458 51 2 0 0.9315060514724673 0.13414738012258987 11.429835865524984 0 0 0
234 26 2 0 1.8223298729722135 -0.5034383759900078 9.991727954686832 0 0 0
453 51 1 0 1.6389722396199762 -1.6437654977986893 11.326340175912685 0 0 0
243 27 2 0 6.998629582350169 0.09505239502303375 10.216757978840793 0 0 0
462 52 1 0 6.445082535310306 -1.51925379643361 10.900603391400969 0 0 0
467 52 2 0 5.785766191230607 0.10078636858437173 11.658291893330322 0 0 0
471 53 1 0 12.457487699922181 -1.2204585223882796 10.419209876753255 0 0 0
476 53 2 0 11.548379684534341 0.18608217473208022 11.487568394318023 0 0 0
485 54 2 0 16.450966000511066 -1.05965047811649 11.235698411123494 0 0 0
479 54 1 0 16.715577772795015 0.7221058081205536 12.036153337442759 0 0 0
480 54 1 0 18.00152990668117 -0.7302886997309765 10.457673414306957 0 0 0
446 50 2 0 22.49718776174918 -1.4604513230274354 10.021113054441052 0 1 0
489 55 1 0 24.334006957827498 -1.3490547439065677 10.639771500130445 0 0 0
494 55 2 0 23.013825710563964 -0.1057858874931692 11.273553663871342 0 0 0
488 55 1 0 22.639992608375053 0.8728785607331195 12.882187592523401 0 0 0
503 56 2 0 -2.5003793624337534 3.995686264079705 11.329243240992007 0 0 0
452 51 1 0 -0.17630099542507294 1.3683585740211095 12.35273096539515 0 0 0
457 51 2 0 -1.169493331120369 2.669367194992426 11.396537456288907 0 0 0
239 27 2 0 3.780788773950319 2.7562163288925365 10.288511235485348 0 0 0
466 52 2 0 4.88805126080584 2.5730115375891955 11.774874421059414 0 0 0
516 58 1 0 9.71882422173511 3.357694548131424 11.072215820857865 0 0 0
475 53 2 0 10.855102636903512 1.903314977950271 11.814840333353574 0 0 0
525 59 1 0 15.203111270728025 2.6156548229223793 11.117473439721051 0 0 0
530 59 2 0 13.92095529907841 3.576386238585509 10.19820138741354 0 0 0
484 54 2 0 16.80681199900176 2.4924514759852263 12.05366867467672 0 0 0
534 60 1 0 21.147697566812546 3.572115079991689 10.934131543934289 0 0 0
493 55 2 0 22.135766800510417 2.0813066514236658 11.669608601181329 0 0 0
315 35 2 0 -6.56667944027073 5.372516210987326 10.34009950689032 1 0 0
497 56 1 0 -2.369794911611873 5.898723862978146 11.943134854327392 0 0 0
498 56 1 0 -1.0289880209178215 4.333213741251086 10.429512716118102 0 0 0
507 57 1 0 4.294412007129444 4.183471764321618 11.172693999449244 0 0 0
512 57 2 0 3.889983579010403 5.570332640666841 12.342321374137793 0 0 0
288 32 2 0 5.073983891951598 6.018880910378185 10.50499366572841 0 0 0
520 58 2 0 7.393684434350256 6.04064082848117 11.198137224370441 0 0 0
297 33 2 0 9.857074295428028 5.29691745570958 10.985870592347778 0 0 0
521 58 2 0 8.229601290542364 4.305059128355264 10.90494270971647 0 0 0
515 58 1 0 8.6413778820071 5.1828418624182895 12.45093782938246 0 0 0
524 59 1 0 14.007456608113218 4.836660471060842 11.604162305001646 0 0 0
529 59 2 0 13.698378041525993 6.586253717953497 11.871989015270016 0 0 0
537 60 2 0 18.448812038720817 5.733198802890697 12.337600030801744 0 0 0
539 60 2 0 19.641589997130474 4.56995783948937 10.880135008396438 0 0 0
533 60 1 0 20.467438930703864 5.619910763302585 12.111389692913553 0 0 0
275 31 2 0 -4.797373424636459 7.438428554983709 10.007323466824928 0 0 0
543 61 1 0 -4.828589725977762 8.577494766277066 11.533554428736895 0 0 0
548 61 2 0 -6.097421531544479 9.087392030449685 12.825389689309155 0 0 0
324 36 2 0 -3.5774084363410004 8.885723206130145 10.164777330343046 0 0 0
502 56 2 0 -3.325954122254869 7.474035115206046 11.234564377034054 0 0 0
552 62 1 0 0.7220297423740063 8.661121198389743 11.251882222763767 0 0 0
511 57 2 0 1.038973005214229 7.346696866480238 12.729581439858396 0 0 0
342 38 2 0 7.084033399720084 9.4214888856249 10.091471020108864 0 0 0
293 33 2 0 4.795354975468593 8.434156750964698 10.32556355942016 0 0 0
561 63 1 0 6.3448045073456 7.525822296741447 10.524213359110888 0 0 0
566 63 2 0 5.99088333809728 9.057653433645099 11.628006578775109 0 0 0
302 34 2 0 10.462987279943016 7.82315163760712 10.74362045033222 0 0 0
570 64 1 0 12.28569410205364 8.013499233102072 10.889562055630766 0 0 0
575 64 2 0 10.994798942272608 8.926691113613701 12.208520648128953 0 0 0
584 65 2 0 17.43997830122526 9.658838469586549 11.158191157805547 0 0 0
542 61 1 0 -5.502815967780228 10.773683627929293 12.587010423391192 0 0 0
547 61 2 0 -4.506809338178822 12.17518072469219 12.03645695282668 0 0 0
588 66 1 0 -6.049381451516726 12.720627827260135 11.101756440940193 0 0 0
556 62 2 0 -0.7625426701338429 11.940887565196928 11.419844761626527 0 0 0
551 62 1 0 0.17530961506499176 10.763533575319661 12.691872533880085 0 0 0
338 38 2 0 3.781456280550045 12.139401029738345 10.694481656224808 0 0 0
565 63 2 0 4.482804882325921 12.113849098193814 12.44950935522732 0 0 0
347 39 2 0 7.23477137569105 11.690227917227515 10.047395476079162 0 0 0
615 69 1 0 8.718847952478576 12.57087355519666 10.675414113253655 0 0 0
574 64 2 0 10.282859633560337 12.33442341342188 11.512777933534108 0 0 0
569 64 1 0 10.852723066044726 10.703194363206402 12.815039109519416 0 0 0
578 65 1 0 16.300568743759563 10.73275052059781 12.098313343919083 0 0 0
583 65 2 0 15.285436553993813 12.220824077871828 11.53713117673321 0 0 0
544 61 2 0 17.903572807050153 10.276392374668482 12.88625612920667 -1 0 0
405 45 2 0 -11.124764335182599 15.071009340094255 9.99384274181975 1 0 0
593 66 2 0 -7.628200521783198 13.613220544451288 11.07219612291274 0 0 0
602 67 2 0 -2.7285255884719346 15.603668927830169 12.873004202897398 0 0 0
378 42 2 0 -0.6865994462203988 13.511096497077936 10.559903181110588 0 0 0
611 68 2 0 3.5259428635053514 15.055372800206401 12.5182470493948 0 0 0
606 68 1 0 4.347295095383387 13.659474752353606 11.34638335813247 0 0 0
387 43 2 0 5.039018355371656 15.199870057827864 10.494219134300481 0 0 0
396 44 2 0 10.103453244375816 13.867634811617684 10.389176008184453 0 0 0
620 69 2 0 9.202436249986938 13.800398946634688 12.02566698475739 0 0 0
624 70 1 0 15.285381821950681 13.715916501168694 10.337053761583354 0 0 0
629 70 2 0 14.076591830122554 13.756897741592685 11.821921600758621 0 0 0
633 71 1 0 -10.314582213639815 18.390619335443184 11.104997096131912 0 0 0
592 66 2 0 -8.875051482491358 17.82417139601172 12.279005265771413 0 0 0
414 46 2 0 -8.662103046450294 19.26571159545761 11.017916511809771 0 0 0
642 72 1 0 -4.198447275884011 18.320583412420923 10.869966558362055 0 0 0
596 67 1 0 -2.928670648592746 17.340042814478203 12.804886312087477 0 0 0
601 67 2 0 -2.955348980756031 19.05098632232631 11.932349426525661 0 0 0
651 73 1 0 0.59946157215618 18.433491151936153 10.547800275485983 0 0 0
610 68 2 0 1.61414134747612 17.84921085357022 12.070605255995723 0 0 0
392 44 2 0 5.919451816011172 16.898151485754042 10.551109404150896 0 0 0
665 74 2 0 5.759164946872907 18.62251373886083 11.337096161547294 0 0 0
619 69 2 0 7.4011237244826695 17.640582679677806 11.48545216430222 0 0 0
450 50 2 0 11.701456026843523 18.18546583187983 10.429849972282673 0 0 0
401 45 2 0 11.544942325123468 16.352911947492444 10.367060227530844 0 0 0
669 75 1 0 12.73221813422608 17.32939839125877 11.622872146011447 0 0 0
674 75 2 0 10.962697401036344 17.48550955233317 11.705840997075008 0 0 0
628 70 2 0 14.353608036755078 17.30585488667191 12.615721747313945 0 0 0
673 75 2 0 -15.955710043187851 21.961237957338163 11.197720133122548 1 0 0
634 71 2 0 -15.153475738377892 21.019552117841513 12.688659589192921 0 0 0
637 71 2 0 -11.093505220678642 21.524236454983374 12.620658909149348 0 0 0
638 71 2 0 -10.696549214576562 19.668784688916766 12.64900422212605 0 0 0
419 47 2 0 -8.151185615971421 21.013613067175015 10.46192614040814 0 0 0
646 72 2 0 -6.559021644751219 21.15661967879379 11.539926205145381 0 0 0
647 72 2 0 -5.024550672953099 19.976287701704386 11.561803561494797 0 0 0
423 47 2 0 -3.4506121745375165 20.007175949836906 10.434713169329598 0 0 0
656 73 2 0 0.7602963753104155 19.55705562120348 12.12339872773089 0 0 0
655 73 2 0 -0.8213564935359488 22.168216793268904 12.043037603856234 0 0 0
664 74 2 0 4.745489958052111 22.01348685512616 11.480871191987724 0 0 0
659 74 1 0 5.258064248833841 20.316037826383294 12.274029642200412 0 0 0
668 75 1 0 10.816838475308007 21.17419631098644 12.350587480828214 0 0 0
465 52 2 0 4.2718322964544475 0.16280564823064037 14.807142394167975 0 0 0
459 51 2 0 2.4998096845822957 -0.3885611628346335 15.367725260303775 0 0 0
472 53 2 0 7.0877087929551 0.5960035149664158 13.908597031117106 0 0 0
474 53 2 0 8.758914142270227 -0.2823337344263359 13.687279161744806 0 0 0
468 52 2 0 7.810081956331446 -0.3696159293580057 15.341554037915241 0 0 0
470 53 1 0 10.430449753133571 0.4169925176560736 12.951596976707904 0 0 0
477 53 2 0 14.09892717336181 0.4051729184022923 15.833564108119983 0 0 0
486 54 2 0 18.239613398720238 0.8512478602477529 15.675589423203029 0 0 0
495 55 2 0 24.569331671281567 -0.7008957938840692 15.504363248498564 0 0 0
454 51 2 0 23.62642489103998 0.6041601715194216 14.532910060116535 -1 0 0
671 75 2 0 22.84386060023762 -1.3761569250402421 15.836886450470551 0 1 0
540 60 2 0 -5.4891685426443555 4.022530034222432 14.739397622439622 1 0 0
451 51 1 0 -2.4238421160554164 1.016003501022512 15.168033954888141 0 0 0
456 51 2 0 -0.8231564638564011 1.460969920099477 14.093607169041618 0 0 0
463 52 2 0 1.0576037006761259 1.1103706196379934 13.69456972880091 0 0 0
460 52 1 0 2.821459871822782 1.1383511308334948 14.377442996957015 0 0 0
464 52 2 0 4.270773733706611 1.9940080504186364 15.2860793550728 0 0 0
461 52 1 0 5.086525379773847 1.2435639397509668 13.43908546873414 0 0 0
469 53 1 0 8.774629573279134 1.122234297958241 14.676806785207372 0 0 0
473 53 2 0 9.654121184010672 2.5517334267436818 15.70749032532083 0 0 0
481 54 2 0 12.041106151474864 1.1872549531941936 13.072846806483728 0 0 0
483 54 2 0 15.43259192425567 1.8139640870114837 13.009170431405739 0 0 0
478 54 1 0 13.802786950867917 1.261366682627266 14.096286325477255 0 0 0
482 54 2 0 14.807116352253859 2.108666930386267 15.430423758152777 0 0 0
490 55 2 0 17.89015481091029 1.5596382109531173 13.313259719523064 0 0 0
487 55 1 0 19.453758822657115 1.7513040950839827 14.395868939160113 0 0 0
492 55 2 0 21.324886252603726 1.6029165190375192 13.971995703931851 0 0 0
491 55 2 0 20.661991052541772 3.1655045096797636 14.82472094599629 0 0 0
499 56 2 0 -6.308064522299452 5.482641399938753 13.870512257612509 0 0 0
496 56 1 0 -4.5922394184811655 5.706178879908047 14.830459488832172 0 0 0
501 56 2 0 -2.9868580209887035 6.474608360823963 13.77347207859074 0 0 0
508 57 2 0 -1.0573482142530124 6.477148443881573 13.406172955086388 0 0 0
510 57 2 0 0.739566019899589 5.734133110011818 13.662931111246218 0 0 0
504 56 2 0 -0.5749525114838923 5.690386026685095 15.058747517546486 0 0 0
506 57 1 0 2.48715212228585 6.302557302091657 13.441834938553392 0 0 0
517 58 2 0 4.330064163999845 6.495792028619942 13.975111680559529 0 0 0
514 58 1 0 6.106193720353694 6.711172803230518 14.944729384470367 0 0 0
513 57 2 0 4.9881532745881305 5.312644776336637 15.819569233265753 0 0 0
519 58 2 0 7.991802449280327 6.028772494532399 14.044068663955297 0 0 0
526 59 2 0 9.786652147240876 5.652890233780731 13.909686680977329 0 0 0
522 58 2 0 10.819083362916206 4.0383577028538795 15.709952530869558 0 0 0
528 59 2 0 13.143451030609281 5.316037733023026 13.20682922960141 0 0 0
523 59 1 0 11.62217147591587 5.32989443885639 14.518087884983537 0 0 0
527 59 2 0 11.214357614792252 6.736895711455942 15.76394598811179 0 0 0
535 60 2 0 14.982825990330744 5.760431339580221 12.937554825840039 0 0 0
531 59 2 0 16.262889192516717 5.386105520339732 15.094869620973231 0 0 0
532 60 1 0 16.853681074108273 6.086202250819197 13.517397803008329 0 0 0
759 85 1 0 21.011382610778078 4.876810508927075 15.602258230935067 0 0 0
557 62 2 0 -0.13753112593554384 8.797220820645688 12.97182998521319 0 0 0
505 57 1 0 0.3430138861330483 7.365692215648783 14.429964820880802 0 0 0
564 63 2 0 5.4011461426670495 8.433350610841435 14.054623459350843 0 0 0
786 88 1 0 6.444700772160687 9.112104173359127 15.526279859772394 0 0 0
518 58 2 0 4.995880159117451 7.971756723782439 15.834504586399333 0 0 0
573 64 2 0 9.395003268988187 9.693057153969315 13.630195462271569 0 0 0
567 63 2 0 8.558761421056017 9.445887887755594 15.326045455881683 0 0 0
576 64 2 0 13.86229647737156 9.302808805608903 14.386331062651944 0 0 0
536 60 2 0 17.07878816809577 7.162227127027553 15.144297238071136 0 0 0
541 61 1 0 -8.93486208237675 10.276102051745992 14.57794363379395 0 0 0
545 61 2 0 -7.498086209071765 11.19738840498902 15.451889379814968 0 0 0
546 61 2 0 -7.154529988102843 10.346349083642876 13.787003682294408 0 0 0
553 62 2 0 -3.5760163124179836 11.625525347111513 13.563215581783474 0 0 0
555 62 2 0 -1.4541667336989343 11.131503824452238 13.674540633813823 0 0 0
549 61 2 0 -2.7433376613999676 10.474329197480282 14.862627938076358 0 0 0
550 62 1 0 -2.3196596715348847 12.309283297138567 14.85472397033897 0 0 0
562 63 2 0 1.939783346423038 11.267293070738248 13.668382151465318 0 0 0
559 63 1 0 3.7334744457289393 11.617705691955617 14.216982211351223 0 0 0
563 63 2 0 2.3841817269102235 12.633459717424198 14.920321027317982 0 0 0
558 62 2 0 2.7979618589348503 11.006129073874929 15.683047125947006 0 0 0
560 63 1 0 5.703086068329021 10.338756079166112 13.313273318269832 0 0 0
571 64 2 0 7.435947235299906 10.540091672416452 14.48483563869205 0 0 0
568 64 1 0 9.307236830558807 11.109981815800639 14.752160580443636 0 0 0
580 65 2 0 12.748514385146228 10.51690300549073 13.481674731250337 0 0 0
582 65 2 0 14.612709479698305 10.558797779526039 13.154971314088879 0 0 0
577 65 1 0 13.869154705554072 11.008436557185112 14.77970149585963 0 0 0
630 70 2 0 -10.577219281610512 14.139456512738812 15.79111068009276 1 0 0
586 66 1 0 -10.748110277042699 15.694578368243155 14.558263628372039 0 0 0
591 66 2 0 -9.031662311823197 15.38777139151731 14.959798487217508 0 0 0
598 67 2 0 -7.23721775610088 16.038768656196147 14.96197133643751 0 0 0
595 67 1 0 -5.345354961011194 16.083266981819754 15.38367950203574 0 0 0
603 67 2 0 0.7128159649827572 14.16792883355833 15.43223850944132 0 0 0
604 68 1 0 0.32597679418610026 15.997998398716794 14.805772700939166 0 0 0
609 68 2 0 1.9738897848968637 15.14209546270486 14.42442187396298 0 0 0
616 69 2 0 3.817732932344967 15.852359357140548 14.22958330858026 0 0 0
618 69 2 0 7.394212148395788 15.738524203908794 14.717235588246535 0 0 0
613 69 1 0 5.577957988864826 15.922530700466806 15.334068260060903 0 0 0
614 69 1 0 8.464437497389211 14.78860102287936 13.513422959440941 0 0 0
625 70 2 0 9.873612322723316 15.324398962215865 14.601989310518768 0 0 0
627 70 2 0 12.845588264239373 14.101393388206725 13.180270848207021 0 0 0
622 70 1 0 11.845631139683682 14.912447451579139 14.486418202736836 0 0 0
623 70 1 0 13.82251265479996 15.631005791052717 13.064707864844816 0 0 0
589 66 2 0 -12.26646454584717 16.363565971402537 13.62593704788881 0 0 0
587 66 1 0 -8.65499402095313 16.777817353194685 13.893616225724491 0 0 0
590 66 2 0 -9.603072606686926 16.98135004522235 15.611892441038371 0 0 0
600 67 2 0 -4.006555188524923 16.292478532891828 13.983859961592142 0 0 0
607 68 2 0 -1.5231825690530296 16.570290100088492 13.938734374978171 0 0 0
608 68 2 0 -0.8375543994954886 17.041667297161162 15.69198772260954 0 0 0
605 68 1 0 2.3835790491546858 16.505402604450552 13.208901467693904 0 0 0
617 69 2 0 6.789841094846974 17.391261058509308 15.480008448393821 0 0 0
626 70 2 0 11.146362824176565 16.36978878964227 15.491414470905667 0 0 0
631 71 1 0 -14.050611633612064 20.623432897953464 14.410276856057742 0 0 0
632 71 1 0 -11.64127016929959 20.47722162146379 14.057038238968563 0 0 0
636 71 2 0 -12.939479735657063 21.39250946713956 13.03070537651241 0 0 0
635 71 2 0 -12.57406112309216 21.854860912469974 14.884381780168194 0 0 0
643 72 2 0 -9.82746123736355 20.897825692718953 13.865185272313104 0 0 0
640 72 1 0 -8.078911982687305 20.805167499556283 14.851976174578407 0 0 0
645 72 2 0 -6.416790707680374 20.282858797097546 15.03397227909549 0 0 0
641 72 1 0 -5.974295282932502 20.4592525399945 13.285888356602467 0 0 0
652 73 2 0 -4.546866831591997 20.549095900408936 14.62352945851536 0 0 0
648 72 2 0 -3.27769028086888 19.702220717096978 15.725909309010255 0 0 0
649 73 1 0 -2.8954994937530416 21.34464592780366 14.937497106281644 0 0 0
650 73 1 0 0.22376551639874753 21.07271166273506 13.109374882238582 0 0 0
654 73 2 0 -1.4132003077257487 21.78507371325012 13.816443067282357 0 0 0
661 74 2 0 1.9762642536678872 20.915847708666753 13.917712188346373 0 0 0
663 74 2 0 3.865322779577734 20.685007257671977 13.637262045981645 0 0 0
658 74 1 0 3.020167298839974 19.93768888687459 15.05740876918344 0 0 0
662 74 2 0 3.238699512353678 21.707818699238125 15.144299269096212 0 0 0
885 99 1 0 6.948740143338661 19.353979773488035 15.675497215254019 0 0 0
670 75 2 0 6.018487610418193 21.75853635371442 12.935097296900171 0 0 0
667 75 1 0 7.43966498475098 20.618061376544446 13.551920558452256 0 0 0
666 74 2 0 8.366369795461045 19.3833672762826 14.486937341087344 0 0 0
672 75 2 0 9.305859854665323 20.408332442182676 13.166825883386771 0 0 0
675 75 2 0 13.070211682250944 19.380940719932347 15.875940951697483 0 0 0
683 76 2 0 -0.2673916609797482 -0.850954290550453 17.584543510227153 0 0 0
677 76 1 0 0.7694381686490428 0.17779820771209165 18.558423037612087 0 0 0
678 76 1 0 1.462730859428139 -1.4078884552462936 16.757204047427017 0 0 0
687 77 1 0 7.234283487023896 -1.0594361330522477 17.18105825902354 0 0 0
686 77 1 0 5.892593820052941 0.6826298815572658 18.254278101437368 0 0 0
692 77 2 0 7.503171895716241 -0.12446067096952085 18.82766701562676 0 0 0
696 78 1 0 12.928612383170702 -0.5926886069165815 17.100293901370428 0 0 0
701 78 2 0 11.149777321786644 -0.23729265451037307 17.37762875148478 0 0 0
653 73 2 0 11.717092987705621 -1.4304508266225966 15.967900228216582 0 1 0
705 79 1 0 17.885138158642086 -0.9978747698745338 16.211862723064172 0 0 0
710 79 2 0 16.541005626760487 0.31381333756260466 16.232701110908877 0 0 0
714 80 1 0 23.47800845690169 0.2388009181681765 16.574744866622204 0 0 0
898 100 2 0 23.92114975543069 -1.5620696132287408 17.100478601154506 0 1 0
713 80 1 0 -4.30604434758884 1.622460291827629 18.84081707854015 1 0 0
455 51 2 0 -1.449525945625279 2.421134252307641 15.960829713548428 0 0 0
682 76 2 0 -0.3584383403307254 3.2954100162303703 17.11888456265913 0 0 0
732 82 1 0 4.604473187376256 3.5955945298812244 16.4163520080016 0 0 0
691 77 2 0 5.127760869494807 1.902959661625104 16.99881223952461 0 0 0
741 83 1 0 9.585612247001913 3.722477050339921 17.06835087901056 0 0 0
700 78 2 0 11.056198301431417 2.6339199544558456 17.023394295159026 0 0 0
695 78 1 0 11.767215041348615 1.255152536259215 18.421169709141967 0 0 0
750 84 1 0 15.472282286042136 3.834396269528497 16.045211709836764 0 0 0
709 79 2 0 16.315700246924173 2.174578713455669 16.52538371473506 0 0 0
704 79 1 0 17.650401365669815 1.0600804123914656 17.484818871908995 0 0 0
719 80 2 0 22.331131555093478 1.5854489400612937 17.5967120351219 0 0 0
718 80 2 0 22.53731570384548 3.0960667483463 18.466700020131643 0 0 0
728 81 2 0 -3.087688977369131 5.5320534820972815 16.133210859144448 0 0 0
722 81 1 0 -2.785730028012141 5.845678992465451 18.07166855256936 0 0 0
723 81 1 0 -1.4967806697272428 4.346373361891656 16.279538591975772 0 0 0
737 82 2 0 4.024686032685661 5.062237591359248 17.51588467661763 0 0 0
731 82 1 0 3.002730926263056 6.430636358712249 18.48434699308549 0 0 0
740 83 1 0 7.379009592388327 6.333083938530999 18.28940463660373 0 0 0
746 83 2 0 8.381650811765471 4.811548139615731 18.14983909954978 0 0 0
749 84 1 0 13.302701793001757 5.785783539999947 18.676602623360985 0 0 0
755 84 2 0 14.461400910277876 5.01388062697367 17.374003276762522 0 0 0
754 84 2 0 14.188449707110477 6.894172081788955 17.638998626694256 0 0 0
764 85 2 0 20.425047334229973 6.001828597137317 17.107042245270005 0 0 0
758 85 1 0 19.81332370112751 6.2063405523035495 18.773437075664955 0 0 0
585 65 2 0 -8.164873558218758 9.438239870653161 15.914419023727476 1 0 0
773 86 2 0 -4.838543679591727 8.57083910262141 17.07930178086033 0 0 0
724 81 2 0 -6.696720019524462 7.254320346061913 18.41376164147041 0 0 0
500 56 2 0 -3.9586707495896336 7.258784568880618 16.008523654930947 0 0 0
727 81 2 0 -2.7733195653792464 7.649531046510239 17.166867804793675 0 0 0
768 86 1 0 -3.383937984246379 9.127670257104024 16.13646130561103 0 0 0
509 57 2 0 0.7431051371651698 8.208870818075527 16.212989531959103 0 0 0
782 87 2 0 0.43621427393364964 9.197584029274363 17.859817573543058 0 0 0
736 82 2 0 1.8132050943080138 7.889824179984505 17.74479547643879 0 0 0
777 87 1 0 1.7772669097481222 9.65055362354776 16.853015234945897 0 0 0
787 88 2 0 1.9128406598563554 10.130773145291675 18.71458281234258 0 0 0
745 83 2 0 6.5731125990975805 7.4945388050530966 16.732754550512418 0 0 0
791 88 2 0 5.616343573062 9.535280465431889 17.31449162899178 0 0 0
795 89 1 0 12.430281369923593 7.613740758130723 17.254792962802615 0 0 0
800 89 2 0 11.702005634418326 9.268854737629514 17.92497115618402 0 0 0
804 90 1 0 18.047849351168317 8.530392294355723 16.173112003196987 0 0 0
809 90 2 0 16.68683568444493 9.576556781117128 17.939153318484966 0 0 0
763 85 2 0 19.593887753816176 7.660406458099997 17.48376097252655 0 0 0
808 90 2 0 -10.32799674665683 12.78372403882635 17.08055489332773 1 0 0
813 91 1 0 -6.090206252124906 12.330189223331661 16.555607495032206 0 0 0
772 86 2 0 -4.873296547115233 12.16372345771093 18.067986033986543 0 0 0
771 86 2 0 -6.406957988087384 11.674318626331775 18.19940390573934 0 0 0
767 86 1 0 -4.921815199186374 10.381109274966876 17.75830000786241 0 0 0
781 87 2 0 -0.5140575792389646 12.726620933687066 18.50040133923631 0 0 0
822 92 1 0 -0.7597354980109261 13.05874775821062 16.670560124223275 0 0 0
776 87 1 0 0.06506464093745334 10.993296920970575 18.29686457096634 0 0 0
831 93 1 0 3.7132735234569454 12.651535664796661 16.430074731520364 0 0 0
790 88 2 0 5.010613018916062 12.970154817192414 17.6413706840044 0 0 0
785 88 1 0 5.391708133721691 11.216772281354547 18.426929060556997 0 0 0
572 64 2 0 10.340844938385366 12.008574219290882 16.13885322762767 0 0 0
799 89 2 0 11.078139211317962 11.442788499682402 17.847651749022525 0 0 0
581 65 2 0 14.126666644849886 12.384423306827653 16.13145143897311 0 0 0
803 90 1 0 16.92527271792114 11.388353840882862 18.19599850339134 0 0 0
818 91 2 0 -6.155864797768707 13.585281325783434 17.84735098444468 0 0 0
594 66 2 0 -5.90952105991982 14.316285053287546 16.097886974791713 0 0 0
554 62 2 0 -2.3534151813174007 13.773398644897524 16.138267866931933 0 0 0
827 92 2 0 -1.7325395344275798 14.09528323311312 17.902864587548077 0 0 0
836 93 2 0 3.605489403581604 14.211383869998967 17.796171672199318 0 0 0
612 68 2 0 4.849968129925411 14.340459660282717 16.353190122032625 0 0 0
844 94 2 0 6.951803722659001 15.869963062572614 16.59028787962182 0 0 0
839 94 1 0 7.714471359921159 15.359899207480394 18.327278635531023 0 0 0
845 94 2 0 9.435979686078747 14.583679091154211 18.219776638003694 0 0 0
621 69 2 0 10.935506206420353 14.58476937345167 16.14402992202152 0 0 0
840 94 1 0 10.590436264010131 13.232270927904848 17.434661697771265 0 0 0
849 95 1 0 15.78192639311816 13.235762633260434 16.882523437378286 0 0 0
854 95 2 0 14.497145882598728 14.51352290583135 17.883891842769437 0 0 0
863 96 2 0 -10.88008160357643 18.34993170383909 16.91717453460844 0 0 0
858 96 1 0 -9.050468449331493 18.251738978546392 17.18734451728607 0 0 0
817 91 2 0 -8.26748447460983 17.17941440277658 18.746672301341484 0 0 0
872 97 2 0 -4.859796243592745 18.330093156462674 18.282410176248586 0 0 0
599 67 2 0 -4.349117635611146 17.443352011777982 16.670429717810006 0 0 0
867 97 1 0 -3.3141776227841167 18.940816561526546 17.614611320766254 0 0 0
826 92 2 0 -3.457092264883442 17.082290127487028 18.334837186219552 0 0 0
876 98 1 0 0.6581471600091229 17.6868068304061 16.613204117812877 0 0 0
881 98 2 0 1.135339153612112 19.030353364226983 17.89914829722273 0 0 0
835 93 2 0 2.0391754177856187 17.396828023203078 17.813530105160982 0 0 0
657 73 2 0 2.2729836881535315 18.63114923356614 16.4119708078389 0 0 0
894 100 1 0 11.776199920924155 18.125993983730062 16.091174004906826 0 0 0
853 95 2 0 13.336091480856274 17.961515505420444 17.065340099481038 0 0 0
899 100 2 0 12.024702364091791 19.306349842103508 17.449971090119977 0 0 0
848 95 1 0 14.18981329539812 16.419062733175146 18.172744840546304 0 0 0
862 96 2 0 -11.145336672994466 21.601402956316527 18.000140493580034 0 0 0
857 96 1 0 -10.84547775845289 19.782314875719145 18.120084517771335 0 0 0
639 71 2 0 -7.671050681125687 19.749233435607792 16.329458364075467 0 0 0
644 72 2 0 -7.420434343880695 21.603047856485965 16.423036244043768 0 0 0
871 97 2 0 -5.793175729953706 21.98410107308333 18.29654526076427 0 0 0
879 98 2 0 -1.4887007104269658 20.157313065268426 18.286906762873244 0 0 0
880 98 2 0 -0.9823445812314027 21.97806226397784 18.03542924736523 0 0 0
875 98 1 0 0.3310050134819438 20.633715098903906 18.674105888822268 0 0 0
889 99 2 0 5.129489954358307 22.018041681188592 17.230424091383473 0 0 0
890 99 2 0 6.275856790124024 20.516783669422523 17.19153392573701 0 0 0
884 99 1 0 5.17110979149272 20.72680831139421 18.553345523505087 0 0 0
895 100 2 0 6.9273952031624955 21.319526818494488 18.823562512478055 0 0 0
676 76 1 0 -1.9123168379191422 -0.01676019958277708 20.833668845891864 0 0 0
681 76 2 0 -1.072925420953173 0.01083330025703777 19.12612581343573 0 0 0
688 77 2 0 2.420754557735747 0.8403580470471841 19.335967477274867 0 0 0
694 78 1 0 8.523083889930465 0.6467600941359564 20.464657052506414 0 0 0
699 78 2 0 10.43325563331379 0.8279462992335174 19.84142430089156 0 0 0
702 78 2 0 13.880415044516285 0.9555854217741913 21.226519606853586 0 0 0
711 79 2 0 18.869920933873182 -0.08157032770290895 20.775399060795895 0 0 0
939 105 1 0 23.03481044188151 -1.8762485814410663 21.666199029975406 0 0 0
679 76 2 0 -2.5335758720388 1.1729022076806208 19.560939837301753 0 0 0
685 77 1 0 3.2838686167896523 2.001239186886755 20.462235481554234 0 0 0
690 77 2 0 4.270394026434145 1.1153901853746864 19.101164035101093 0 0 0
689 77 2 0 3.0118064259371655 3.586339146496889 21.384839801010674 0 0 0
697 78 2 0 6.8150299260814045 1.302175693448845 19.756407309824212 0 0 0
698 78 2 0 9.829125311326294 1.7711094785034485 21.4248888789238 0 0 0
706 79 2 0 13.18482791534036 1.903546782618275 19.730409089624953 0 0 0
703 79 1 0 15.016097549331784 1.8227281430687183 20.012705186715653 0 0 0
707 79 2 0 14.08442521436948 2.8599149847360623 21.10385335472033 0 0 0
975 109 1 0 15.80868209504572 3.5823052803296305 21.724163591506596 0 0 0
715 80 2 0 18.42483244462921 0.9885210776255366 19.239837485735947 0 0 0
708 79 2 0 16.64328093526263 1.6330565660087042 18.89326702694744 0 0 0
712 80 1 0 19.980984881877696 1.2921287902546998 20.274564146994933 0 0 0
717 80 2 0 21.747035582340267 1.704966505646397 19.483112476922802 0 0 0
716 80 2 0 20.892382540121083 2.3974136678435567 21.496467011135827 0 0 0
721 81 1 0 -5.744368848146262 6.538776783637431 19.973719907599023 0 0 0
765 85 2 0 -5.123691852711131 5.414745768800099 21.323760332405868 1 0 0
726 81 2 0 -3.924360597056915 5.911216515485384 19.91924433743224 0 0 0
733 82 2 0 -1.7580070224016042 5.503115544980189 19.711395619697296 0 0 0
730 82 1 0 -0.04793571475044178 6.013973215107423 20.399136560584168 0 0 0
729 81 2 0 -0.8670579263544007 4.30905345490048 20.905232851331593 0 0 0
735 82 2 0 1.6246325395775774 6.563823713523451 19.828378312672232 0 0 0
742 83 2 0 4.033361060278405 7.085167308660102 19.87758019063721 0 0 0
739 83 1 0 5.156780847002973 5.680761661235745 19.467743001256558 0 0 0
744 83 2 0 6.993261419352434 4.936110754807039 19.457108685462824 0 0 0
738 82 2 0 4.8709589401331135 4.926534703926085 21.20878567972095 0 0 0
743 83 2 0 5.394537255809599 6.8332380184029 21.159769028218637 0 0 0
748 84 1 0 10.139819146116764 5.83460579232628 21.00218256798552 0 0 0
751 84 2 0 8.59164678821689 5.919772373519603 19.662139459495595 0 0 0
753 84 2 0 11.939707525487123 5.701896285541724 20.2000673258237 0 0 0
752 84 2 0 11.757531678401557 6.838403619789254 21.72493740051801 0 0 0
760 85 2 0 15.135083100471894 5.850321241321272 18.972828001044956 0 0 0
757 85 1 0 16.572497150259586 5.594899868725683 20.249222724467415 0 0 0
762 85 2 0 18.446702946525498 5.48758645846966 20.08404488058569 0 0 0
756 84 2 0 17.490899201585123 4.51078196064725 21.329345249095155 0 0 0
761 85 2 0 17.612326663016965 6.456102807260805 21.5402539939069 0 0 0
766 86 1 0 -8.85515646951886 9.706604008121078 20.72270851187601 0 0 0
725 81 2 0 -4.485146130044823 7.186025753247286 21.21990492381601 0 0 0
770 86 2 0 -7.127220924857232 9.698500673054127 21.05939553627005 0 0 0
774 86 2 0 -2.669395496710662 9.240946862688698 20.29583515376291 0 0 0
734 82 2 0 0.7086056977717536 7.522344665630184 21.1958146434965 0 0 0
789 88 2 0 4.689050568476654 9.603321587311404 18.962978655138038 0 0 0
792 88 2 0 7.468127829652348 9.490956128206047 20.96541740598654 0 0 0
794 89 1 0 10.454457391605573 10.040205023640256 19.106772368103844 0 0 0
798 89 2 0 8.620421728757565 9.558304128318145 19.43577611918875 0 0 0
769 86 2 0 17.56376491052302 10.128642630304226 19.489145747187745 -1 0 0
778 87 2 0 -3.702422257881002 11.133111858059989 19.17644819545955 0 0 0
775 87 1 0 -2.577063119570631 10.983653016140815 20.756736044639403 0 0 0
780 87 2 0 -1.4222592129919276 10.416817219737453 19.370495295413775 0 0 0
784 88 1 0 3.3875961230170093 10.635878344812648 19.92177071187501 0 0 0
783 87 2 0 2.032930049827945 10.578565707165135 21.226280977477774 0 0 0
788 88 2 0 3.420357656333443 11.849246132635939 21.394026018980128 0 0 0
796 89 2 0 7.007418752624085 10.573792190748877 19.482547827791773 0 0 0
793 89 1 0 8.609107661062966 10.923021577730117 20.4608040208741 0 0 0
797 89 2 0 9.34595069839807 12.256355441934932 21.83170951538873 0 0 0
805 90 2 0 12.169572988892806 10.57098212025946 19.833991777774806 0 0 0
806 90 2 0 12.938839291732178 11.67713033654481 21.21408711195351 0 0 0
807 90 2 0 15.751931155827142 10.518576847053124 19.299387075203057 0 0 0
802 90 1 0 14.034271755764943 10.610627566958726 20.300908612277627 0 0 0
814 91 2 0 -12.604698420786244 16.196654063574762 19.765644962933095 0 0 0
816 91 2 0 -10.30053584453492 15.609377054119372 19.34246494297125 0 0 0
855 95 2 0 -9.786925197801216 14.72641607380992 20.913302722032505 1 0 0
812 91 1 0 -8.599501753483592 15.7331517163994 20.013167884764442 0 0 0
823 92 2 0 -7.3950394620644975 14.815524502900642 21.329852123136174 0 0 0
820 92 1 0 -5.506791854971512 15.138746645046082 21.65393248808775 0 0 0
825 92 2 0 -3.9438593831172293 15.57029186376757 20.49930820040923 0 0 0
821 92 1 0 -2.249145141823505 15.76965581811117 19.273842264368938 0 0 0
834 93 2 0 1.1155480957998103 16.152038903340305 19.881358353774566 0 0 0
829 93 1 0 -0.25994316133065354 15.42135424268441 20.937629717207916 0 0 0
830 93 1 0 2.7872738631251472 15.875204920290807 18.906649503402832 0 0 0
841 94 2 0 4.458582595564826 15.684483822221052 19.860312758698157 0 0 0
843 94 2 0 6.393273398060066 15.524647258506429 19.751930189969013 0 0 0
837 93 2 0 5.39474606698861 14.422444181904078 20.95053482088155 0 0 0
850 95 2 0 8.724864588065712 15.33042309249146 19.758942435784746 0 0 0
846 94 2 0 12.23179944495528 15.227326035292778 20.695501687369152 0 0 0
852 95 2 0 13.688366138054553 15.216652563161146 19.459023135743514 0 0 0
811 91 1 0 -10.838942315342843 16.332558088062136 20.931083639491153 0 0 0
832 93 2 0 -0.6680476626119529 16.796546917712 19.95021425609617 0 0 0
833 93 2 0 0.4774693186075414 17.096288110936044 21.430010767140615 0 0 0
838 94 1 0 5.532405932984953 16.38021786243435 21.241785249439946 0 0 0
891 99 2 0 8.147205380406684 18.882546476316236 21.067825883356328 0 0 0
897 100 2 0 9.424130638136717 18.98918960946075 19.861871832861606 0 0 0
851 95 2 0 12.162336781869085 17.573593023754178 21.65720409030874 0 0 0
847 95 1 0 13.466480043935121 16.7465246464687 20.51158409237282 0 0 0
900 100 2 0 13.624751714986663 18.686592972024712 21.238994651370728 0 0 0
856 96 1 0 -13.558216207175729 20.378071801618624 20.446545812966313 0 0 0
859 96 2 0 -15.213033595975249 20.41217251502742 19.538070728543524 0 0 0
861 96 2 0 -11.903920644117543 20.603673342878388 19.464482979132416 0 0 0
860 96 2 0 -12.744760585998698 21.707346396086756 21.557644543404006 0 0 0
865 97 1 0 -8.457413254970024 21.00035522190668 20.53526552917376 0 0 0
868 97 2 0 -10.031755798296114 20.944721399436197 19.290917175808325 0 0 0
864 96 2 0 -7.497739668939271 19.98143996294251 21.585906319661763 0 0 0
866 97 1 0 -5.094683771872628 20.24346779329379 18.87456492795354 0 0 0
870 97 2 0 -6.58858988715942 20.667954858754065 20.085211192035423 0 0 0
869 97 2 0 -7.058537623541124 21.84738519426071 21.50861997204024 0 0 0
877 98 2 0 -3.114648809782028 19.954310631715124 19.237978427243974 0 0 0
874 98 1 0 -1.686970172018088 21.30583100299416 19.760292927789227 0 0 0
873 97 2 0 -2.4507481125347206 20.689105404018555 21.30147545000211 0 0 0
878 98 2 0 -1.4055934865194157 22.258826028417552 21.391976539959977 0 0 0
883 99 1 0 2.9588273283118554 21.097699523999722 21.420178602070795 0 0 0
886 99 2 0 1.8254044989297507 20.580357784566978 19.92190092060331 0 0 0
888 99 2 0 3.7462302568354 20.481430369691147 19.794010897298314 0 0 0
896 100 2 0 8.016444142126197 22.308882994329345 20.100945690922345 0 0 0
892 100 1 0 8.586981986806778 20.547966489271786 19.971060055668627 0 0 0
893 100 1 0 10.89950634028598 19.799450349413007 19.110146587176214 0 0 0
908 101 2 0 1.1239845186474735 -0.16685179728871757 22.888889943847037 0 0 0
684 76 2 0 2.4518769017163855 -1.3479682962137094 22.239972780906843 0 0 0
917 102 2 0 6.208708741315018 0.21573850853374754 23.496958365251043 0 0 0
693 77 2 0 9.397161364673616 -0.012196365806314002 21.882752972424218 0 0 0
912 102 1 0 7.667851883226373 -0.8714947056529094 22.490720741074025 0 0 0
921 103 1 0 13.039698167413562 -0.46181296172983455 22.453935941923834 0 0 0
926 103 2 0 12.860041016199693 -0.7557162001200954 24.45781606393791 0 0 0
931 104 2 0 13.725335000282145 0.5477604428967875 23.939173978647013 0 0 0
887 99 2 0 16.466346210805554 -1.8647119092164595 22.738395519102035 0 1 0
930 104 1 0 18.028268738811825 -1.110864173631252 22.251014734021552 0 0 0
935 104 2 0 17.54439479806946 0.5464804850212266 22.9834349299878 0 0 0
720 80 2 0 24.689382168433546 -1.0396225884406736 22.003699897027914 0 0 0
944 105 2 0 23.268111930482696 -0.7720967618427101 23.2139244898551 0 0 0
938 105 1 0 22.6131773828266 0.8313812000815779 24.320249952462625 0 0 0
680 76 2 0 -0.286389532259248 1.0839374321029833 22.446026221926783 0 0 0
907 101 2 0 0.41077420629597716 3.383264009068613 23.912903035845957 0 0 0
948 106 1 0 -0.514886340522184 3.015131833759697 22.296200711645458 0 0 0
906 101 2 0 -0.9214197652723082 2.1635046643422857 23.84209978727074 0 0 0
902 101 1 0 0.8823104849797554 1.6186347759167923 23.828063707051445 0 0 0
957 107 1 0 4.568563807281753 3.256492278492842 22.26450333880055 0 0 0
916 102 2 0 5.374727630358621 1.8548379991238888 23.463174419435145 0 0 0
966 108 1 0 10.076734035498903 3.588851632157793 22.147099910623087 0 0 0
925 103 2 0 10.51218241089729 1.9671272968119187 23.237726798360054 0 0 0
920 103 1 0 11.91392231581292 1.0128975567996532 24.258326706896728 0 0 0
934 104 2 0 17.202906347754364 2.4306086319892772 22.852460712899113 0 0 0
929 104 1 0 17.11960013745484 1.566726689572191 24.604806861483805 0 0 0
984 110 1 0 21.73191312569587 3.948418213596505 22.510546753155328 0 0 0
943 105 2 0 22.54068441899728 2.7291869372484605 23.766262546493188 0 0 0
953 106 2 0 -1.5574114745364684 4.198125059784558 23.295995073565802 0 0 0
947 106 1 0 -2.175044662950386 5.899174315998429 24.01133374742632 0 0 0
962 107 2 0 3.7398370699090044 4.847385909859815 22.69434348313951 0 0 0
956 107 1 0 2.8005318401639085 6.224177875476572 23.819000223417444 0 0 0
969 108 2 0 7.331437484079439 5.143901944042296 23.87205074520686 0 0 0
970 108 2 0 7.413312549260807 6.866277954482607 23.124412630257613 0 0 0
971 108 2 0 8.900514939262822 5.057735057726778 22.779354303985965 0 0 0
965 108 1 0 8.628377498488073 6.203244486185634 24.289337669212355 0 0 0
747 83 2 0 11.440294244158952 4.997990588173251 21.917853958195703 0 0 0
979 109 2 0 13.367401634497934 6.564552646136811 22.73045244563044 0 0 0
980 109 2 0 14.247436506984942 4.421147519681803 22.775562034799453 0 0 0
974 109 1 0 14.21743212821349 5.684809589939555 24.335514730747324 0 0 0
987 110 2 0 18.399428073927517 5.464937691288706 24.782684622544974 0 0 0
988 110 2 0 19.361735774388762 7.0576073617329005 23.129757610041764 0 0 0
989 110 2 0 21.560003780756915 4.2959571760031885 24.39243274259526 0 0 0
983 110 1 0 20.2202733069742 5.510706130436131 23.953875543911217 0 0 0
810 90 2 0 -8.16773108262306 8.447353097831154 21.878011882899216 1 0 0
998 111 2 0 -4.373904641546298 9.560070634347944 23.47188168112546 0 0 0
993 111 1 0 -3.4227372955042252 8.825032667567298 21.952823279100272 0 0 0
952 106 2 0 -2.991287106110162 7.494396559447939 23.4005071313954 0 0 0
958 107 2 0 -1.7228109891551457 7.418473494071323 24.82909014330125 0 0 0
1002 112 1 0 0.8732262520964054 9.192035317157229 22.034774137328725 0 0 0
961 107 2 0 1.7430520073885143 7.7118525611706925 23.12569841994565 0 0 0
967 108 2 0 2.865693958852064 7.725669316032786 24.668646434240877 0 0 0
1011 113 1 0 6.543589311300858 8.202298867802849 22.101087035991785 0 0 0
1016 113 2 0 6.1270511599027735 9.780548481789275 23.113643122776935 0 0 0
1020 114 1 0 12.520093332325468 8.347132211290806 22.63456664384134 0 0 0
1025 114 2 0 11.915079953403193 9.524064007701513 23.990714982319588 0 0 0
801 89 2 0 13.392544098359435 10.035990446346194 21.98640562332959 0 0 0
1034 115 2 0 16.995348297176378 9.564005867445946 23.751434706014802 0 0 0
1029 115 1 0 17.94553887989099 8.152347049725677 22.52861951117596 0 0 0
996 111 2 0 -7.269604148313739 11.078978855338683 24.754752235259765 0 0 0
997 111 2 0 -6.445040754765802 12.240995804265507 23.487687039928947 0 0 0
992 111 1 0 -5.473454661723832 10.777103449301755 24.235521938875024 0 0 0
779 87 2 0 -1.7601514152982678 12.293177821513272 22.06549660480183 0 0 0
1007 112 2 0 0.22670032022349274 10.671749168274605 23.23324810091183 0 0 0
1006 112 2 0 -0.39073535027111506 12.487652518263927 23.336926760176777 0 0 0
1001 112 1 0 0.9368245442842302 11.848778539853214 24.502433112327953 0 0 0
1015 113 2 0 6.223139340962701 11.71043067900552 23.314992325107703 0 0 0
1021 114 2 0 7.350246916921041 11.376634615364644 24.76462034821528 0 0 0
1056 118 1 0 4.777677343584093 13.011171059732568 22.418963489641612 0 0 0
1024 114 2 0 9.97680090857428 12.038717539077252 23.659192578507668 0 0 0
1065 119 1 0 8.194100185763425 12.673685693249524 23.479991440089233 0 0 0
1074 120 1 0 14.365355305287023 11.736302894886578 22.456617878776225 0 0 0
1079 120 2 0 15.020374489436405 12.726279032515958 23.99242135774485 0 0 0
1033 115 2 0 16.206696624940733 12.120198906665232 22.78636650820063 0 0 0
1028 115 1 0 15.96734844543746 11.09826884606016 24.347721151351404 0 0 0
1043 116 2 0 -8.836151644462488 14.39657675146666 24.638890818283098 0 0 0
1037 116 1 0 -8.84111094709414 16.153707109480408 24.350468022768577 0 0 0
819 91 2 0 -6.345790771446076 13.559275650945624 22.10725858634208 0 0 0
1038 116 1 0 -7.335551049180639 14.398720867933667 23.387097972146254 0 0 0
1047 117 1 0 -1.9976844306579258 13.615377317939256 23.412192894212314 0 0 0
1052 117 2 0 -3.4186782924295898 13.983677978192032 24.492168356006005 0 0 0
828 92 2 0 -0.7731718579628069 13.919266037324883 22.05875267436717 0 0 0
1061 118 2 0 4.034240849551662 14.175579750128685 23.852617157422216 0 0 0
1055 118 1 0 2.780622539873991 15.433962600033032 24.42320540124298 0 0 0
1070 119 2 0 6.509769018598378 13.572713535362142 23.239760348690464 0 0 0
1064 119 1 0 7.716874667490238 14.96263878853535 24.173311208634438 0 0 0
1078 120 2 0 13.821541634432213 16.12158733762886 24.10563613218224 0 0 0
815 91 2 0 -10.522203288225832 18.130800961865063 21.874956023701536 0 0 0
1088 121 2 0 -10.513179408370165 19.23022822823669 23.37448740727434 0 0 0
1083 121 1 0 -9.048310563819978 19.145783056932146 22.226572512276594 0 0 0
1042 116 2 0 -9.564140992328344 17.559573800746477 23.107806259713254 0 0 0
1097 122 2 0 -5.045143839186393 19.148476673232665 24.29904663241401 0 0 0
824 92 2 0 -4.4153466079299895 16.60264617558512 22.035651479301062 0 0 0
1092 122 1 0 -3.673376756697605 17.53040981038457 23.671975925336202 0 0 0
1051 117 2 0 -2.033652039864621 17.237380098226275 24.592434670042724 0 0 0
1101 123 1 0 0.9907869879493321 18.330819715618134 22.823945589240292 0 0 0
1060 118 2 0 1.6780985078339334 16.725937581160395 23.725085056507666 0 0 0
1069 119 2 0 6.614456353289562 16.358149168245028 22.876236612943682 0 0 0
842 94 2 0 5.27272454967455 17.490503947017217 22.746609934595796 0 0 0
1110 124 1 0 6.743693418722927 18.236326819111035 22.133116228826875 0 0 0
1115 124 2 0 5.472877983805052 19.32236276318114 23.276735264146975 0 0 0
1124 125 2 0 12.215291301092929 18.926367632624505 23.04509965056578 0 0 0
1119 125 1 0 13.601803161989094 17.657331633171886 22.826460153028464 0 0 0
903 101 1 0 -12.56336037830959 22.211224032196846 23.41467608836997 0 -1 0
1082 121 1 0 -11.571029757124787 20.208608586532144 24.659991441736448 0 0 0
1096 122 2 0 -6.561739507177862 22.302431207918616 24.06772163357662 0 0 0
1105 123 2 0 -1.5587544728170566 22.052876190210156 23.28224284702024 0 0 0
1104 123 2 0 -2.661157440626587 21.699507387652048 24.784802315407113 0 0 0
1106 123 2 0 0.2373288318353155 19.918946424819012 23.83383455984975 0 0 0
882 98 2 0 1.5244290874815714 20.136588212835306 22.41856879339968 0 0 0
1114 124 2 0 4.052868251228862 21.361939851504182 23.13009433912314 0 0 0
1109 124 1 0 4.624512216608641 20.337039769158523 24.78850170462407 0 0 0
1123 125 2 0 10.188660872657652 21.78519231714357 23.066944357850147 0 0 0
1122 125 2 0 9.32387698483957 20.101426019365398 24.464788189838043 0 0 0
1118 125 1 0 11.177143119796268 20.28360794626559 23.953500203824323 0 0 0
901 101 1 0 -3.807118758076444 0.8513135847813049 26.380490424188945 0 0 0
1085 121 2 0 0.6066387070145023 -1.462427250357068 27.28613095512387 0 1 0
909 101 2 0 2.0539518037209836 -0.21736808181481782 26.974815561213664 0 0 0
915 102 2 0 3.6777234118342568 -0.19484912283323297 25.997307176392187 0 0 0
911 102 1 0 4.8697065170805764 0.7198851050041197 24.860505623859705 0 0 0
918 102 2 0 8.05899121438097 0.47320281843795886 27.612096106828496 0 0 0
927 103 2 0 12.884086284259903 -0.366257706883792 27.45933627207693 0 0 0
1103 123 2 0 11.463326809139426 -1.5998962265649324 27.690917523560916 0 1 0
928 104 1 0 13.694734278154721 0.5310868937958033 25.835176288305018 0 0 0
30 4 1 0 18.590595115013073 -1.1811094957420427 27.312369339635037 0 0 -1
942 105 2 0 20.65728595732518 0.5817634953521784 24.964341725633798 0 0 0
936 104 2 0 19.784123191903177 -0.6958120446058849 25.93287295244042 0 0 0
945 105 2 0 23.737560016203062 -0.7463549294523164 27.416397177954085 0 0 0
904 101 2 0 -4.147713410146097 2.1413624616620535 25.134631171706907 0 0 0
905 101 2 0 -3.3734099658749472 2.6839358701879252 26.82035116448115 0 0 0
48 6 1 0 -2.129793419138378 3.923330296742056 27.62315495549875 0 0 -1
913 102 2 0 1.8571638211262256 2.763654770454406 25.01058783792375 0 0 0
910 102 1 0 2.6924765229948715 1.316742915626762 25.818804653015995 0 0 0
914 102 2 0 2.7499783055936726 3.2187114114777726 26.647803442906646 0 0 0
922 103 2 0 6.563932006602011 1.5536079609553348 24.850893539214848 0 0 0
919 103 1 0 8.3903179268754 1.3809023583426714 25.928001631754636 0 0 0
924 103 2 0 10.17949860572769 1.4988844313901417 25.0100687134747 0 0 0
923 103 2 0 9.046256749973269 2.4870594785073603 27.247151248862597 0 0 0
66 8 1 0 10.376028718824454 3.9396356644586117 27.68208453375359 0 0 -1
933 104 2 0 15.506875875873037 1.289594701159726 25.707009483644967 0 0 0
932 104 2 0 14.503944121263496 1.3994144675467042 27.3013689705066 0 0 0
937 105 1 0 19.132652290455177 0.9786320764039527 26.104503292810126 0 0 0
940 105 2 0 17.759853937683985 2.2047504824802227 26.214236070979812 0 0 0
941 105 2 0 19.117107670401474 2.4989969348495 27.550708311025726 0 0 0
949 106 2 0 -6.193923186154269 5.826174284291462 25.519834687118948 0 0 0
990 110 2 0 -6.546653696895302 6.729220423037528 27.17386237504636 1 0 0
946 106 1 0 -4.9628886802057846 6.987377703844755 26.389864018312863 0 0 0
951 106 2 0 -3.4983310086570665 6.728839055647793 25.039147762766575 0 0 0
954 106 2 0 -0.5199919215693098 4.902638653639708 27.04659360271869 0 0 0
955 107 1 0 -0.2997946169169916 6.40048548281902 25.814490858173144 0 0 0
959 107 2 0 0.40952998335361057 6.484768173707613 27.56423078288573 0 0 0
960 107 2 0 1.7653430800261427 6.754714162588037 25.246819532556817 0 0 0
963 107 2 0 4.136629253420586 5.341040423721625 27.230498973150524 0 0 0
964 108 1 0 3.642791604665523 6.710072219459246 25.998314048270455 0 0 0
968 108 2 0 5.123419140049964 6.958411360306039 27.24268729084544 0 0 0
976 109 2 0 9.852228559531659 6.870477451642193 25.6177363532185 0 0 0
972 108 2 0 11.992311349493987 4.32770654692515 26.752746149491593 0 0 0
973 109 1 0 11.332795947284382 6.0216892178025 26.599741972139455 0 0 0
978 109 2 0 13.139071295668199 5.612484790708951 25.98469691634496 0 0 0
985 110 2 0 14.999655298034897 6.252625415087204 25.898236902206442 0 0 0
986 110 2 0 16.55510719136236 6.988208979651487 26.704419511735196 0 0 0
982 110 1 0 16.60036129742369 5.953058816504887 25.183744317003683 0 0 0
950 106 2 0 -5.495605885776705 8.266524680457849 27.61986568212808 0 0 0
999 111 2 0 -3.0561012230747924 10.045547972477795 27.385086322034432 0 0 0
977 109 2 0 10.591682731126912 7.680380471303893 27.191091960765924 0 0 0
1027 115 1 0 13.565292798520252 9.944685074808543 27.1698143667087 0 0 0
129 15 1 0 17.311786484845648 8.396682364861883 27.718563482541825 0 0 -1
1035 115 2 0 18.202723805573186 9.898416277766414 27.22215312704153 0 0 0
991 111 1 0 -8.547397460651457 10.984582140019285 26.133253395919922 0 0 0
995 111 2 0 -7.476112409645135 12.183870915284889 27.21459348873062 0 0 0
1003 112 2 0 -3.862467713910073 10.4715033670464 25.17361234362254 0 0 0
1000 112 1 0 -2.1942054384801675 10.874079498689218 26.033902751058925 0 0 0
1005 112 2 0 -0.42374056240788605 10.805940907294552 25.02621059895423 0 0 0
1009 113 1 0 2.983055443702346 10.65379167299225 27.31077539630475 0 0 0
1012 113 2 0 2.3771790926343 11.521678985301588 25.680243381844363 0 0 0
1014 113 2 0 4.1264097373937805 10.845317316923815 25.91119677372019 0 0 0
1013 113 2 0 3.5669320966123452 12.331516632829961 26.964141241936787 0 0 0
1010 113 1 0 5.746112979287128 10.48266713540759 24.86756915278762 0 0 0
1018 114 1 0 7.7064414712680644 11.023034918896018 26.573877408469443 0 0 0
1023 114 2 0 9.187688587191058 11.446055792487357 25.203842406237893 0 0 0
1019 114 1 0 10.95974662867598 10.919918706487838 24.863972948180063 0 0 0
1030 115 2 0 12.639715239294782 10.483151738057867 25.57733864233549 0 0 0
1032 115 2 0 14.468314056233043 10.950957576246596 25.89746139156598 0 0 0
1031 115 2 0 13.814551132280174 11.872603376529367 27.34808116566889 0 0 0
994 111 2 0 17.86451840461551 10.72186326058513 24.990144450955054 -1 0 0
1036 116 1 0 -11.652002712328823 15.538861763310274 26.613300967837425 0 0 0
1041 116 2 0 -9.909493765276292 15.437439421695737 25.806321335461064 0 0 0
1044 116 2 0 -5.942028081084736 13.355517754497484 27.087209188912063 0 0 0
1048 117 2 0 -7.3014400735207765 15.425482295172975 25.078098857369262 0 0 0
1045 117 1 0 -5.967808565643891 15.262913631344516 26.60575043680959 0 0 0
1050 117 2 0 -4.225911505336135 14.813951568373492 25.9690477089705 0 0 0
1046 117 1 0 -2.720851055584071 15.588137538124306 24.965323081973978 0 0 0
1059 118 2 0 1.3649928561349247 15.890471426975266 25.443366418335902 0 0 0
1054 118 1 0 0.29360089726806926 15.970752818339863 27.055843435740975 0 0 0
1062 118 2 0 4.208849215269286 14.071616753663024 27.510778078708316 0 0 0
1066 119 2 0 4.125496120288744 14.795659571186034 25.731904933582364 0 0 0
1068 119 2 0 7.241179508220624 15.263564104540047 26.037031092988364 0 0 0
1063 119 1 0 5.4417259762648245 15.400052342212573 26.952787429944706 0 0 0
1071 119 2 0 9.725884435949064 14.708516789623678 27.166831485982105 0 0 0
1075 120 2 0 9.08660394703237 15.383946958342753 25.514970273138346 0 0 0
1077 120 2 0 12.762776078191488 15.281859338200503 25.469347472330288 0 0 0
1072 120 1 0 10.900283715478999 15.62106791507338 26.11650230222408 0 0 0
1080 120 2 0 14.641988286483867 14.48376294436971 26.96989228981572 0 0 0
1073 120 1 0 14.494169801985494 14.480995865122365 25.008868912955908 0 0 0
1039 116 2 0 14.536320646800958 16.001449760202902 25.881504458845978 -1 0 0
1040 116 2 0 -10.578456129583648 16.955572432208932 27.39891297038282 0 0 0
1089 121 2 0 -9.482942879954894 18.84314475038157 27.16525877865383 0 0 0
1049 117 2 0 -4.9296936850975825 16.411285951849415 27.752047667293876 0 0 0
1095 122 2 0 -6.516075767618892 19.01213440047055 25.445099027316022 0 0 0
1057 118 2 0 -1.169932461677842 16.284894055782743 26.00423154074765 0 0 0
1058 118 2 0 1.7182192130775613 16.969432405278752 27.6313007635885 0 0 0
1107 123 2 0 2.8802564915922337 18.499941440151098 27.373433853215534 0 0 0
1113 124 2 0 3.772050102003746 18.964244160235097 25.755174476628675 0 0 0
210 24 1 0 7.132198800845304 18.70994394268031 26.99610488705091 0 0 -1
1067 119 2 0 6.366853065147865 16.94008243102723 27.450044315379017 0 0 0
1116 124 2 0 8.151694743449687 18.94971619383253 25.42179947334531 0 0 0
1076 120 2 0 11.431534517685371 16.7619187900586 27.55139177228464 0 0 0
1081 121 1 0 -14.268504586301033 21.25125446535513 26.559695344133285 0 0 0
1086 121 2 0 -13.448047198381262 19.75665581414725 25.82790950144678 0 0 0
1087 121 2 0 -13.198671902589297 21.294875510049785 25.06930501324132 0 0 0
1090 122 1 0 -8.149638647292143 19.63475656252647 26.08449017057201 0 0 0
1093 122 2 0 -9.924530144556659 20.018444459535147 25.7317036395762 0 0 0
1091 122 1 0 -6.172720335013466 20.624765124435037 24.912844107298998 0 0 0
1102 123 2 0 -4.408859348865532 20.446963260575387 25.534166949678443 0 0 0
1098 122 2 0 -3.714378304295856 19.745212758131657 27.630902182844338 0 0 0
1099 123 1 0 -2.8779607713357005 21.005780823768347 26.452160847469383 0 0 0
1100 123 1 0 -0.8727832755525298 21.195053562758922 24.863062272468742 0 0 0
1111 124 2 0 0.7895785403785895 20.60402033798585 25.57093258090779 0 0 0
1108 124 1 0 2.6325915504017647 20.250013412080015 26.450541323985856 0 0 0
1112 124 2 0 3.119500913212425 22.06447634556953 27.604859622242838 0 0 0
1120 125 2 0 6.477719401113081 19.810901369517197 25.45204203745655 0 0 0
1117 125 1 0 8.175695680090948 20.629100673025192 25.948328047326797 0 0 0
1121 125 2 0 8.810258776081872 21.928261614290676 27.19194540948946 0 0 0
1084 121 2 0 12.687542485555126 20.34419819269548 25.188585868024816 -1 0 0
1125 125 2 0 12.40419297722394 20.078906579436556 27.517515122680663 0 0 0

Velocities

3 0.07581799373673287 -3.3450935920548854 0.440360787898393
8 -1.0838104376332878 0.20159100027965812 -2.0580942428566136
15 -3.9279565866491466 4.484811588421137 -3.846100826177623
10 -2.303122697144706 6.204997642838184 -0.5868313606406281
17 -2.487198237640168 0.05676654926412353 -0.22689339784645426
12 3.481190809372919 1.8465982031339465 -3.280906344638008
196 -3.74601320184947 -6.656772691154619 -3.093440177787791
1094 -1.0045700359202023 1.245348770556224 4.087494889801295
21 6.022769995122069 -3.841688566593831 -0.2623120735229614
26 -0.04402975952956744 -5.9916160068953905 4.027928074869457
29 -5.760894484663617 -1.4938165587795227 5.0327331669170405
35 -2.2760764369576503 -5.244957348751201 0.5307499743397044
44 -3.3761614362065355 -2.817193933167771 -0.7062015315736949
38 0.44918788711919777 3.8053847525477766 -1.6927675145961119
39 -3.442298222708319 -1.804906274681991 1.2277639979227521
6 2.038929923010518 -0.8451416918083595 1.3820453960369803
2 -0.623610430011621 4.162629401414968 -2.227760803282339
7 -2.5603381824063147 0.6731698303791523 3.943706569286571
53 -5.746681684336751 4.024625778860218 1.513357349263484
16 0.685588097016832 4.163816048077664 -4.146473818669185
57 -1.2569989028249593 3.0011332077387873 0.08908513642542992
11 -7.19543757039687 0.8775578892235599 -1.8542338198335573
71 0.5524862745407135 -3.144589454436671 0.02289826613880893
25 -1.8246198292434472 2.7511800834552975 -0.7193670211503207
20 -1.1401147373606075 3.9676349150562884 0.3475636692213224
981 -2.733347429286108 -5.2257416676876165 -0.804969882428358
75 4.010756955770293 0.5719366605042489 0.09273361700071964
80 6.934001921155142 -4.421691718460824 -0.9836876555339166
34 -0.802383342675602 3.9935810630639748 1.133711235108052
84 -1.0493832077718146 -0.2186745094911576 1.5747739333072635
43 -1.4047935984521864 -3.251802152418914 1.1741804406002907
47 0.6246941005813291 5.050419932457884 -0.42193990903506906
52 3.1816764351027955 -0.7363756453194013 3.7329979605855996
62 3.6533221638962057 7.511484619166856 2.2075227057206273
56 4.459028940491977 2.5961384851795857 3.4134025739275438
69 2.205137219065959 0.41264340920472775 -6.90676896236299
65 -1.7489372909351977 0.48365967018619127 -0.6955161541470186
70 1.776375513884964 -5.207842218978197 -1.205463932487077
79 5.04087328943819 4.118167589266714 0.95650611571021
74 4.523536816469706 -2.6956833875029043 7.099613390751579
89 -6.000708163185534 -5.667379981454941 3.888954621862687
88 -4.536119457057719 -2.7691948031570717 -1.317294202934246
83 2.153576833715912 2.2673730195405426 -1.983524552104832
98 -3.7479230038215343 -3.272876317878027 -4.450503424858463
93 0.2923143055065179 -0.01638354299763848 -1.582976071093004
102 -4.209797282493404 6.32770632345754 2.688116856951139
107 -4.6964585431051855 0.33900069845501074 5.818149945420247
61 -4.631127673610818 -7.492454725344386 1.2323536291581578
1008 -2.6689840881191755 -1.2136342253332588 -3.038714700542199
111 1.9386684609807503 -1.6380538640465536 -2.817199374737904
116 1.1273103968193 3.4685553015988155 4.611220049658138
1017 0.7066660442025632 3.0005676058204824 3.3644380257225848
120 0.03236944817864986 -1.4647679670268434 -5.186380518293376
125 -1.6648990235268653 -3.0218457608472415 0.8155748477856638
1026 -3.4096146231330837 1.5488507043983821 -2.5312039315461927
134 6.564928245228627 -1.3996059239889458 2.226241421704048
92 -3.820167842234768 1.3923170614105604 -2.5760842797416887
97 -3.2530793876109305 -1.13385484409954 -1.5362720838491344
1004 5.438455299774319 4.853411679030266 -0.1655527921803195
147 -0.34489568100279067 5.239467782075705 3.509733492439702
106 -3.042890052560025 0.39372736810140735 5.21862250172467
161 1.7971669199786693 -0.3864152458804357 -9.496152504043877
115 -7.490683950087659 5.978903787491239 -0.09296598449058413
156 3.765748453224224 -2.9690933486718385 5.642926074613482
124 -1.4655101850136463 -0.15465792487389773 3.0471372788479103
1022 1.881291506874091 -1.9012245317302856 -7.3045478266791735
119 -4.084687028526007 2.1765227058039827 -1.3151205103037475
133 9.372687446339164 -2.4944886436678733 -1.4977591746874042
128 -0.7418278627984534 3.436898127125614 -1.0556880719760624
94 -7.452688666468884 -2.935139890378515 -2.1143165283752006
141 4.565873652801199 1.7060008383432388 4.440552471471296
143 6.020368977867787 -1.5547491806654024 2.3938781374431457
137 0.22288281730994958 6.1165563645760495 -3.93518646778081
138 -6.557116093607821 2.0693077239412294 2.0882944981061415
152 3.060811343884187 3.1222391937863168 -2.614233906995181
146 -1.3651649389104774 1.602529689107101 3.3250282756586764
1053 1.1052202785952912 0.868197638689372 -2.833873868038585
170 1.3643925530294376 3.211839304204265 0.09825507663322917
165 -0.7412634723544907 0.7761999325880994 0.733981080413934
164 -3.6858161834038756 -2.5747334156301496 0.6751115919045191
179 -0.8968772835165997 2.3743351530863057 2.1226435296325312
173 3.1847416532080146 4.6550153350664925 1.3225695207985828
174 -1.2553609425185004 3.0907519640719814 3.0800718004563588
188 3.6093549583048374 -5.019245107820889 5.874734495566666
183 3.630222043908668 0.37787867433767075 -3.5630221448992567
142 -0.9446446198375521 0.9374093675142232 -4.911820439792721
192 1.5933771191620398 -5.014172166210298 -2.4444168504501724
151 1.5232234099345496 5.024611506348855 -4.333889836150075
206 0.27255437669916716 0.811312138811982 3.6777108362015203
160 3.8624267016907887 7.607847325770667 -1.7677626746453567
201 5.565980870113896 2.3951387034766434 0.5327985906605649
215 5.5853261495500375 1.242443644078383 2.3474480916073466
169 1.5213197341195825 -6.4034446299329755 -0.17206650523900344
178 -4.5034646297405425 5.540439939490592 3.457130524050198
219 -4.178415177749201 1.3345824520407943 2.1965837037269145
187 4.253484656619698 -0.8039708576413486 -4.418609547658059
197 2.7527574255234177 4.088169914964147 0.46335911456909723
205 -2.155771259899171 3.0617635968037353 1.6004350096329047
200 4.591393233911022 -5.12416145829021 -0.36200621944847533
211 -1.1015299546273611 -5.27614869100583 -2.5000991312523504
214 2.8277088449999157 6.799806278277831 -4.04374624563769
209 -2.2851198756437667 2.5557589675698886 -1.6972201799656348
218 -0.6323856825059374 -0.5088092489786774 -2.0200041818659593
223 1.5739669159484337 -2.4411535417174406 -7.174109533777336
224 -1.2283829861944784 4.372711386650905 -0.5605041279017386
185 -0.5192284280388612 8.260589344095493 4.471479657910274
228 3.190021189672653 -0.31140599126815266 1.4669604447140938
9 -5.061832524823848 1.3812518379087564 -9.195529105922935
412 0.22121465660729286 5.7377707465747525 1.4538741632416596
18 -0.4720883358048649 0.47861634423478655 3.4863025275997312
33 3.3736956100799436 6.990082292450641 0.6337758688262883
27 4.611004812904148 -1.4177304938714415 -4.224512318834697
212 -1.8932988135694129 5.335718904152427 -0.7681674923337224
36 -0.22986184273031324 4.427598777242504 1.2844422019130641
42 -0.5246741824417598 1.598557933495119 1.186738855307222
1 3.339954190150386 1.4512370627500915 1.6588772853797236
5 -2.118822945506278 -1.63224683515958 -0.30880121753053824
13 10.06180112853984 2.8774526387918575 6.504185579076136
22 1.806863757784421 1.7190814216033736 2.225974749775844
19 1.9271068032338228 -2.102027477356174 2.9438431344389664
24 -5.619637630546571 -2.648239328452543 3.4127166313742454
23 -7.861862304205383 1.3039871128896021 0.5478862171247139
31 3.945593352615939 1.1009874136215614 -2.024878002639609
28 -1.600244458969308 1.17356909942117 2.833567269903174
32 1.250813718587876 -0.1375916388114982 -5.315696769922614
81 6.059969465904613 2.194661810693066 -1.507970940739557
37 0.40240106987010177 -0.5757890972117273 2.8148489741361162
40 -7.947620515187174 -3.3453930783877195 3.588686287853863
41 -5.997095903434894 5.164966771267288 -2.5807217634230413
4 3.3282849803069388 0.4469634739446655 2.0531284326714316
49 -1.4590214087551956 0.9913675585233516 -2.5462230092032248
46 -2.3245023824413393 1.104646388674528 -1.1488590483466263
58 0.3049779698555118 4.922739274479392 -3.6838548745275492
51 -2.502735650581914 -5.848960498058114 -9.163604212717777
54 -3.6468595784478173 -4.426317816596279 -3.9268666519522415
55 -0.7593615452702343 2.388047385194554 -3.652079271781859
60 -1.994185867219873 0.6291467453332608 0.3057117424599195
59 0.6413016110424136 5.071605772714066 3.5562767109459275
64 -5.50316176497743 0.1905522377567633 -0.2265448719315246
67 9.332598790840214 -4.048401091850272 4.800726990398191
76 2.6864466380149654 -0.38299754784653 0.7082237660063829
72 1.1569449982145328 -0.5071489330738532 -3.9106189811568477
78 8.560982760127123 4.27547803122307 6.387334456040079
73 1.9711375734302894 3.9482139901244917 -4.91750119323508
85 2.9811832559077844 3.849160291339771 -0.7035141827613381
82 8.678353224151008 -0.24166835956255964 0.35945745768625614
87 -2.97011172489874 -7.078654857474154 5.214064436908066
90 3.4347811377749577 3.4174916069522547 2.6179276057638265
50 2.08820912726281 2.7088498993863004 -0.4631835705359875
99 1.6790183498726439 0.5608013433042932 -1.0181094301735405
105 2.5370710619025956 -4.024577233393041 6.339665434688251
101 -3.3897835773395055 -0.9075933804083197 2.4363041399735628
108 3.841274123236016 -1.250076750046089 -7.294132718367354
114 8.933758988447174 -1.3913647796298132 1.8503466984961425
121 -4.05979066611899 -2.824882594942675 0.07731560646026213
117 0.9528386647863233 1.2803403986482194 -7.037582218329362
77 3.389872655859234 -5.0287200781811325 1.100894463862809
86 -1.0755979882582125 -0.38859984982583295 3.6096673651404374
91 -0.44410783529099424 -1.5564757764689396 -1.6437451606675382
95 1.5813638276248223 -1.9039165540867589 -0.674119922392895
96 -4.62345184374668 -1.549656164472763 -1.1367062090817839
103 3.7419760207967654 1.9126396536234542 -3.1533944587313036
100 -1.2487334192516006 5.9618814482961975 -3.2035919332633984
104 0.4207710607694804 -0.10635897599636948 -8.598191859328068
112 1.6925806474445302 6.233430088789613 2.5282553450119627
109 1.7600522770256455 -0.09531033640076787 -5.340308561091033
113 -4.094640146028769 -0.8463725233687073 -0.9001584983592961
110 1.1180421691248408 1.8000523255005947 1.9390107887777273
122 1.181870004878245 4.81869852814751 -4.336777476163628
118 -5.500671526270748 0.9368197755947986 -1.0927710308500245
123 -0.3655759328823687 5.05832582989816 -2.1119222299398266
130 -0.8636504933862947 -3.6963157992735183 -1.8715564255455432
127 1.7253903378668485 5.365818190030234 3.9983689067802723
132 5.911311776438256 0.38723697968982074 -3.5873816052166885
131 -0.003761684205093287 4.048327168819355 2.408596981836485
135 -3.789414850758427 -4.385047919937991 -0.655387929060403
136 -2.847244854202553 5.608702137494883 2.006840959962695
148 0.8086857739881429 -0.28222915953309385 5.950520762149549
144 -0.870997467481346 -6.091616029040389 -1.737682723360222
150 0.4911670839470959 2.2652406223585437 0.8785814880529412
145 -1.6343079528908142 -0.43345865335379274 0.7049876577097335
157 0.11661893656115511 -0.6441587391147646 0.3298944771358407
153 3.8152796396293707 6.531883987573018 -2.4661537543463323
159 4.63004909010883 1.7736613988014365 2.2553983299667992
166 0.29394070647710807 -2.2483296534245913 -3.2535526858335984
168 0.20328262000696418 -0.7408824367766595 2.794122954215756
163 4.673324797592478 2.3267994772187817 -1.3727055398291894
175 1.8054055341715862 8.934495699467456 1.8651113939214763
172 0.28597672491475046 -1.8669119466256878 -2.7916342662312252
171 3.4520456143128917 3.13972444101012 -9.338870930235737
177 -0.5856095983654589 0.16200644021823268 0.7374401527130781
180 -1.14031213983683 3.709723463358192 -0.1249939183825773
139 6.192939911601787 -0.8044988666294532 6.592489059938777
186 1.5909681758663794 6.112120882773656 -3.676366161417527
140 5.6785978953214515 -1.8818701579549482 5.908662083909014
149 0.08598163142632091 3.54540853272047 -1.7361704325578728
154 -2.492466430214148 4.7779692770700395 3.272314322108266
155 4.1309956505178 -2.176895759015178 -1.5762197309882444
217 0.5333817896721939 -5.2349339959102545 2.7895298256282883
435 -7.068460928477115 1.5524705233599814 0.5099168935684192
216 2.3692426671340323 -3.4243271082441344 -4.69511771969254
176 -7.611207730800009 -4.878122673289437 1.533738916325484
225 3.526958791262796 -0.10157418546450324 4.351753059798103
444 0.8744027474664796 2.1002591866880236 -2.647480005654745
181 -0.5734783362162689 3.083118679822359 0.47895673411652256
182 3.98665759164378 -0.7663541964151734 1.4031057109860026
193 8.908962865679136 5.099304106670054 4.633643908345804
190 0.6759338679651186 4.7706871337296795 0.5581764268765124
195 1.0964876063773394 3.483672708355425 -0.4077321616214932
191 -0.8048824477864661 1.870292354659471 2.9228005931773375
194 1.8781804269959836 0.7095914456026865 -7.720216699794122
202 10.974976052530407 4.526798675523759 1.2305663511723077
198 5.54949489075428 4.318252660250055 -1.4803500932163665
199 3.692670217216142 -0.40862442895564005 -0.30975181403233576
204 5.169776112113425 -3.197477064484237 2.8793899474089066
207 5.988014677358134 0.8501495936215157 -1.0642464001179743
208 1.6615336264820184 1.9134301938186538 2.961167202219364
213 3.308122610037649 5.0363236291141655 0.4255388047500891
220 -3.3235531597411754 -0.6587166418679407 3.1572916930074557
222 3.2643376516004747 4.3101828667745785 1.2720818221082477
184 2.6185553820972602 -2.7586724270346177 -0.6214492783394777
45 -3.9992480066248843 0.8510137667060859 1.165532799154608
233 -0.5119920144208201 1.3574828405340356 -1.6416054636444168
242 -5.605149167532152 2.9009589442836585 -2.156356615153792
237 -0.6004144241513947 2.3854846764927125 2.9735544561926717
203 0.2373750787118206 -3.109904667847659 0.4491286788422535
246 0.2503928734197929 1.3767292424804676 1.8553184019303381
251 -1.33140542995445 3.5884671416579046 7.231478183586306
430 -6.145790612892975 -6.568836824336811 -4.519234486562334
255 1.131256453508116 -2.05711179527247 2.210076006461566
260 -3.3526331286818976 3.2306565393705533 -3.3810286700206533
264 1.4677022405368916 -4.796547874742124 3.7001905508716546
269 6.90502106759605 -4.92391921554028 -7.3753894481709255
273 3.061694214980471 0.494540527804144 -0.9367448944055417
231 1.326546870388823 1.5582982470792208 0.9986702039382855
227 3.165384645255853 1.6235186393789478 4.950363856959022
232 -1.4748093307267578 -3.890331959585911 -4.713205433560131
238 -5.618091053099264 -4.824395484815564 1.055689332699371
14 -15.035754455307531 1.6322584521423822 4.42661163262585
287 2.568061725059387 3.9951716033993603 -2.8582583905479493
282 -4.089441747942925 -2.4296948962775495 -0.19601046664300933
235 1.058560517798882 0.5667557730425469 3.6406534975449105
241 4.253976140114307 5.331384504761102 -3.3937039974703938
250 -1.7574955077440753 6.988243282592569 -0.09212868755861149
291 -1.8145397521369764 1.2898608738507125 -1.6042589862753613
245 3.030469765728121 0.5209335471640973 -1.2803772004938558
254 -2.0748871769645167 2.6513667648150436 -0.15143349137011214
259 2.2748757468239242 1.756751107521806 -0.5271899905423413
263 3.220797699057434 1.1603871345475278 1.7720989921242023
268 -2.0873932552553534 2.1909005980746024 -2.3486696875943593
278 -2.7963634864227567 0.3154503181796495 -1.0875035741321193
272 -5.629134444343231 -1.1289897967950944 2.0589593974268543
281 0.023972241019921604 -1.1467094453745443 1.860862018158893
68 6.117059859726956 -1.9854983165772522 2.333426558551899
63 -0.5012196740577963 1.9383357140835742 1.0082117983847232
296 -0.7503218441785531 1.6608034897207062 -1.2709941484402938
290 0.41021953868590355 -2.0902327471898476 -1.7776975410683074
299 -4.036713623963781 -0.662700708845289 0.2538903617411139
300 1.067140771898353 3.2849346468916316 -2.1784812862622935
305 0.7956467060347246 -3.5734027782183126 -0.7265675327895306
309 -0.07808702590715033 2.540390830344543 1.9157964901753597
314 3.77630843868202 -0.6905158468247832 3.0644036927748064
308 -2.69363275830768 -0.42995935878874203 2.276066061086301
318 -1.2360884674162533 -0.03515092295084941 0.3120638180634496
323 0.17958887935740295 0.4818679730210794 -0.6487100491321661
277 -6.128756179646887 -2.076310953887022 0.7663142533888151
327 1.8992157973360888 -1.5978570492833557 0.47729115818083084
332 -2.4298529263781026 0.9827492546101154 0.1251533449716979
286 0.7898196494656498 -2.1033372646542365 1.3276753033039503
336 0.6766307693960306 4.130035993637847 3.1214326262449084
341 4.319793888764299 1.0726760439372975 6.629677357612626
295 1.3324248279482318 -4.625580714514826 1.1254330773353947
126 1.4323414474238094 1.9146275655275824 -2.958868451253359
345 -4.6314696424724096 1.7925383718559447 -2.0847665320575306
350 0.5756096594798871 -6.841689496792225 1.598107736243352
304 3.7306474827385627 -1.4059872721285067 5.001815821510125
310 2.337784443611757 -0.5731803267375546 1.5072609462864892
354 -0.6071631618398862 -5.143777531315872 1.7406289579093412
313 2.217573063315211 -7.43752280030791 -1.4230065117034814
363 0.7171332743133728 -3.5744835561071455 -0.11931689058396201
317 -1.1713147111357005 3.341630021073813 1.6980920690144714
322 -0.6525686780994374 1.1940928752647308 -3.8280469235330155
331 1.7453428431868816 -6.70104482523678 4.019034005147307
326 1.8977925088345184 1.1925261892949848 1.1867614249773453
381 -3.255419462442519 -0.4815303099594508 -1.8269552170496306
349 4.595008206211412 1.7614015344895215 4.148169782371532
390 2.035044542171897 -1.1361095426772465 -2.47055267107761
358 -5.0934770739240935 -2.7836203546815224 1.6810351321152683
359 -1.9648559042083347 1.2845766278564505 1.8368114856776139
353 5.313168798416009 2.0463578334432238 2.609447965567915
368 3.1733397774133487 -0.9580411570859736 -4.026282483782367
377 -2.8677831297706793 -1.4640908076339905 0.3852207821479091
371 -3.7748821771490886 6.5372383657892 0.6311244021245885
372 2.6227806697163536 -1.6176295021608122 1.166221879387804
167 5.846071870500976 -8.669182135940273 8.673636519397927
162 3.3805578212585967 3.313604198216683 3.3251265304233795
394 -2.3813687527417335 -6.487386042747793 1.500520472097835
395 1.4810575830795587 -2.1153696644883038 0.511308777278303
389 -0.653940330736355 -1.6802627705984465 -2.0269575322314024
398 1.6896275478625953 0.4996673731116932 -0.03530351985697966
403 -0.6446181068070832 6.930318539053815 -4.399210677694555
399 -2.0853811521644507 -0.3967512917549141 4.190304492458972
404 -5.269592763330007 -1.3885147973079806 1.0591139703025723
189 -2.497740041005789 -0.3517449433321557 0.837596659038395
408 -0.2750168450544966 0.14193817786976226 0.39358412262467357
367 -0.08571902297327168 2.035119942700205 -4.221099764311197
413 -1.201506128004583 1.7177099464834447 -0.7259166589634372
422 1.375810097434973 5.894498994761702 -7.58198176916173
416 -4.339379210831188 -0.37178895464410533 -0.8101669942709336
417 3.5912130941108837 2.249017593999633 0.3540541391883106
376 -2.5833022408568374 -7.304747242922087 1.2298553914500574
158 1.905823675465843 -8.261968473896168 -8.99728141333233
385 2.7738507937481756 -4.735260103790375 3.3757161753143063
426 -1.3383592311086188 2.7912296814162816 0.4464383112780012
440 -9.525215668248089 2.916115978389985 2.3380723528260083
411 4.875145494263699 -1.1927710062018266 -2.1530654181693056
421 5.53749227576283 -0.878684909853977 1.4791145595089878
431 3.93930942505535 3.867448364393318 -3.52431368520482
425 -2.6593630500036163 0.5761095962365806 3.7368580460307395
439 1.8762867698041508 -4.643701036960566 0.6023084108843206
434 0.9048057688432201 -0.9546560755169121 -3.796865894226534
443 6.396896561033605 4.563164274966737 0.046251098755396125
221 1.9793824822296275 4.52204705099148 -5.120885473419504
449 6.736821933976012 -7.037958538022749 -2.577257587086288
448 5.5520471978561705 -5.360660396064591 3.455615471658524
240 0.22018257492779306 1.05554918097273 -2.0576390935350144
428 -3.0694868615089903 -0.8444298885666326 1.628371765539505
252 2.058304356092842 -1.2067014129917712 -2.0517160703078203
258 -0.23142363072711133 1.9011782269560369 -1.005439501073778
253 -0.6391743030037659 -1.0192092823882684 2.1974325816583606
261 3.6352583588096006 1.0812647567460902 -8.578047570939523
267 0.09646974876290713 0.8181094582031919 -0.9350990633138581
270 2.247480936791171 2.9639748514685014 3.1579738627419713
226 -2.516177816201983 3.8747756776229787 -0.1975835814770096
230 -3.634801176542525 -0.8956839682874457 -5.330770894989388
236 2.4270107530462437 -1.3804706291432294 0.3633978587894184
247 6.43834993333785 1.2881242077073047 -4.2028355551809495
244 0.06968485823907157 -5.804564723256452 3.6408415283873317
249 -3.3537431218781713 0.8843982777777242 -4.143568792335393
248 -0.5834778457101041 0.13963086463590998 -0.8634025026339561
256 1.861634571353767 -4.154906133897636 -7.365597004572736
257 5.682258713488132 1.008610832119786 0.7649673840257493
265 -4.866908853639648 0.17221035089861977 -5.337913717776886
262 -0.9122619125820993 0.09307096222021444 1.8128026879761865
266 -2.160748385714826 -2.0723131713694203 2.5013229735427474
229 0.7233944231615971 1.0320566464496599 2.69037562769589
274 4.82056948043701 0.2350806287444559 0.9560679805753748
271 1.0497945202748233 2.836992421365907 -2.6149284885919086
276 -0.7980552641893099 2.4456703818428527 3.0535290984608374
283 5.171445508077772 -1.3184415296569862 -5.091163012665189
285 2.149950387316517 -0.1770779684604688 0.3207988977211095
279 -4.534347683985513 -7.800498248205464 4.985748802546231
280 0.8322629293411481 2.3753194737642875 -2.958289270724048
292 -5.519598116243241 4.798305829164453 3.780230363152428
294 7.871098651257926 -1.696058120476822 -0.9737179934496012
301 -1.9494753243198468 -1.1031644786682477 3.032747009523516
303 -10.145472183947708 8.671797855019914 4.852065719490365
298 -0.8033488329126215 -0.8646978811644154 1.1491545580274438
312 -7.106478835380999 0.9765381668692208 6.049046707238537
306 -2.036769707604614 1.2974946826905867 -0.8002423684780543
360 0.6209197716619551 -5.174869222203329 1.6162520834973448
284 3.4126910169642786 0.9618598953353908 -5.437375222336714
333 -2.5384957819035137 -5.070017851143694 -1.6991511395262908
289 -2.7591469257532926 -1.5512552939096356 6.089262563318315
335 0.9922509110846179 -0.35783273039865027 -1.625559233814408
351 3.00932063637733 0.814142966101712 -0.22061823714668624
307 4.841276687389803 -1.7507414708306068 3.7706817049302583
579 5.7589066601208545 -2.7115607287718437 -5.036087981719543
538 0.22365672669086387 -5.897810701970693 1.208803740590024
311 1.4417361715183488 0.5439244837396754 1.4676058601134394
316 1.9614952410771218 2.7371602922948113 -5.360195614956619
319 -3.403323800293078 1.8325617105065533 -1.0338429907292563
321 -3.3436615697382637 -0.9093786480159293 0.36895787417410464
320 3.355155157500559 -1.698659796713168 -8.064213382353177
328 7.513814153038129 -5.857745828833484 0.6503040687289926
330 2.171134901830339 -1.3387173327454287 -2.1017737624009825
325 3.1431574342980633 4.790498906424057 4.641768887439532
329 5.0040399553156165 -2.8730700423806588 -5.176800469749127
597 4.396476763922461 0.6396379124679001 0.27295315323901426
337 -3.7424738883384965 3.9111610744243244 -4.971307409456087
339 8.03258577586596 3.9652947575158457 1.3600529513981914
334 0.42145369599319954 -4.0004613120504775 1.3144082466923934
346 6.297192403736888 6.905027459241115 0.29618733812012665
340 0.47869340966612417 4.2202016760798395 -3.6354727544921945
348 3.3975623689450756 -2.8238243952428452 0.5009893219748394
343 -2.0987506349107243 -6.488156635962234 -3.9581514390155155
344 2.752943490446209 -4.59455354648853 3.517088097850263
355 -4.965079844019028 -0.8705393360629593 2.6106063121502254
357 6.5399824518224525 -2.0470739010729675 4.866324176723375
352 4.379561990404905 -1.398277228253374 -9.036437271448683
356 3.9071591943939468 -6.169103960717184 -4.235418695222022
361 2.166801408126008 -1.6967420188475837 1.043359247980217
366 2.465954315406195 -0.6694827848035226 10.041466278025432
362 -2.604495883072299 -0.3928005155035417 1.4608063603040233
373 7.865208047553282 1.282662229680755 -6.486898379300776
370 2.8216379364655393 0.3535171377878958 -5.450984493820355
369 2.697281278151123 -6.2803585121135015 2.6282684131579637
375 -2.443931440330069 -5.857556932128502 -0.7680758246159265
386 -3.6543078779378395 1.0884518161189976 -1.5045229514204874
384 2.421274967915032 -0.7171258051514677 2.4448769041069096
391 -5.425132508017031 4.483873877449788 -1.4917075527663397
393 -3.619996324386704 4.755427049219045 -3.236383027931658
388 -6.230324731087795 -1.3776782949535304 4.8383413266918325
400 -1.016808299542842 0.5952215692953631 -3.500312559075347
402 -0.6169656982431498 -0.14721206352896002 -2.19215622819344
397 -4.937661328731665 -3.5705221739739064 -2.5873892971580754
364 4.710115917624536 -8.752653452080242 -0.3707524228529767
365 -1.0771388011648755 0.8837205949876882 -5.431257484903141
374 -4.379082644715679 4.932732717859375 -4.817705269809074
382 1.5132376363819333 2.1356124935944263 -2.6752739672488732
379 2.8049431938544784 2.301632713998375 -1.5747215054926786
383 -2.7237249146753744 4.60233185133703 -5.657123139422625
380 3.5761642296909546 1.026583788662903 1.4870525082781045
660 -1.5722545886117172 2.9832220012527855 1.384027583030294
409 -8.683879049205968 2.6053804477070486 3.149600678835072
406 4.8654297369164405 1.7197912407123586 0.5001974435332789
407 -1.814176141898144 4.327904100506676 1.518957148853622
410 -4.437272662270038 -3.312869863923545 -5.881539107466925
418 1.365789485319714 -7.971349560822042 -1.7139716401561966
415 0.05715857967045675 -3.0380632141036825 -0.31100182735523196
420 -6.197171814740523 1.2103298381729237 -0.9938932977422689
427 -6.6312294543426304 2.6962845891648564 3.6169481328434543
429 -8.79825547143417 0.8671485530079286 3.094230528859204
424 -1.850803642661491 -1.9341708449759991 2.4393113095201926
436 -1.3441030491662354 1.7027286091368992 -1.0301863725075517
432 1.8618722876291975 1.9571256906530714 7.485023379554387
433 -0.5539180594738837 5.349757227657932 -2.002988044978655
438 -8.692329744590557 -1.1853255497814181 -1.926448390778305
437 1.5841097005961227 0.9689524702575252 -5.089860648788229
445 -0.2080675863857512 1.1787464469445017 0.1920043288664465
441 -4.528682418095891 1.499102825396658 2.9063054297401494
447 2.5864144269588816 -4.885390008230317 4.022074727519049
442 0.7414333680108037 -4.892807301483951 -2.078554760152833
458 -4.366943547074019 0.7480711581479761 3.9686259649401627
234 -3.6350005816697615 -2.995634787523345 -0.7224593235071115
453 -5.060178060515234 1.8535340908926772 -1.8929413465372342
243 -8.176736889300958 0.7172881667164215 6.425527249811122
462 5.0580384251613255 -4.167741886032504 5.88725806047013
467 -2.2622915902719876 2.947732266281264 3.1871574532389353
471 -3.149798150692044 1.271428999198104 1.3783481016765122
476 -5.338373473481372 1.141242272366804 2.310646539197476
485 -3.6795934657509526 0.4169906966150332 -0.2878956277407254
479 4.056681474971736 -2.761936871596632 1.9404304963524481
480 -1.1899959956543855 -0.6157861381143598 2.0574338915981656
446 -4.869373434204995 1.0323248636877647 -1.7740764555113877
489 1.6764099279511895 -1.7874609014021474 -1.093648603010528
494 6.062360947424063 4.156958561730539 -4.369921114935846
488 1.8118987724923674 -3.4844919284441116 0.1741796051851504
503 3.6379174134733385 1.9520520595120205 2.664332155484898
452 2.3859524031163093 5.24661002243613 0.11525792624859843
457 1.2518123997982022 4.166348378125518 -3.2505539164807677
239 5.255136129050626 3.707136675884463 5.303118718832151
466 -2.655648367453586 6.422252687198362 -1.0542316765278463
516 -0.34290745385361704 -2.229463160805863 -6.377960139107768
475 5.749324030154551 11.055960121345858 -1.986535915249765
525 2.3631804204153295 -3.567803531944195 3.130234654928526
530 -3.9559200705088045 -3.110301787079819 -1.2272763469760601
484 -2.6991025212046154 -4.40681044263546 2.5756328462349387
534 1.8147172057063912 3.6237741479515146 1.8962664937999936
493 3.4582122443565892 0.20594209707503963 -3.0618512705948286
315 -2.6699604477649714 9.632246930311927 -4.578377962261666
497 2.085078793338133 -0.0475655899300938 0.9479659149368602
498 -2.44023336780764 -2.369859945344508 -5.033095798067705
507 -2.169169830319452 1.1573475930796553 -4.007175915372246
512 -2.131021399157665 -0.9166608230150955 -3.5593617330676612
288 -2.962320497455139 2.2320876592909507 2.65789840041466
520 3.396280116378168 -2.690364451180755 0.16165344785266406
297 -1.018891872145423 -2.6483687438815418 -3.639244553560298
521 -0.3664018753505797 -0.09225899312755051 -0.9787539554771794
515 -0.2691860312326601 0.32274823267752895 -4.426148404869654
524 2.929083683484955 1.4262011883508208 -3.434032056044928
529 -6.977569479437059 0.8893223721088832 0.9122600167974176
537 1.3149280018254572 -7.0364699799736945 2.395041292821802
539 2.1571902166414336 1.1574467467672263 -0.48005871860165356
533 1.7016678226156556 3.688119998689871 0.21386420041621343
275 -3.2140452490219684 1.064936735770601 2.6912644039905507
543 -0.04002119752336187 0.7611403590943214 0.9662751290421646
548 6.377765033789775 -0.4258913418359448 2.778667379429212
324 -4.3721480906059345 2.5623897940165086 -0.35893860317274456
502 8.409087234610466 -4.513675992570405 3.5531207834284397
552 5.322002974751472 3.878373809156614 2.2838583405075674
511 -6.345092180545667 -2.118439431799713 -1.8132763784383221
342 1.2757194269272387 -5.2830963545780385 6.077498547936479
293 3.907537950514006 -3.021519657810891 -3.294169807841747
561 2.2388533572578533 -3.560264744506221 -5.667915085137772
566 -3.547036992380432 -2.4633224043792694 4.182045121075763
302 0.8056695797695982 2.980563531168876 3.161234201805176
570 -3.683160418711604 5.128325307260853 4.0225522266996245
575 1.0561831685050245 -0.9156068099600964 -5.885079525877808
584 1.806567646732595 5.360979656377088 3.9242099048416366
542 -2.003066690938132 -2.6796587683900976 0.995888419522503
547 3.39411304608646 -4.528755630169747 0.8207480750426883
588 -6.0069659412279 -0.41051846478895154 1.9514632790117565
556 -0.36941990768422694 2.0640748065773327 0.03629492018314487
551 -0.643821096930146 3.268908915554535 -0.24451232302068784
338 0.11302723041084348 -2.1668790329066074 -6.738650387549294
565 1.881619280319487 -1.0097865332378466 0.14296261265341392
347 -5.909525807149463 -1.3101260306409555 0.5799851614540017
615 -0.9635743407666277 2.7803791585701023 3.0125543252699183
574 -4.436697551453594 0.03271124324522811 1.2687506947164187
569 -1.2130033990343092 0.4155381936484781 2.665797375196404
578 3.9518948079442926 1.3018439556282548 5.130688133691075
583 -2.765065697459434 3.8577772643586594 -0.1924669814090924
544 -1.3049266942540607 2.997879303742141 -4.07385845619708
405 3.9143698359935413 4.036877222842007 -9.353571830215786
593 2.906726801543002 -0.6886144446635658 2.411027136990833
602 -3.68942227538776 -4.228304143944513 3.672294332905769
378 -6.74259703325292 -8.777436383707304 2.7152527706908716
611 2.54407744239026 5.02926683158225 2.2825580760642996
606 -1.9688093236730995 2.075355438350444 -2.3261252547595745
387 -5.922976872598308 -4.198066445725069 0.9148921062861033
396 2.0931875597545253 -0.12580374749211262 4.109745427708153
620 -1.8134040887333864 6.53535530815009 1.8927004610595062
624 -7.998061345268729 -2.1405388430039496 -5.449827565943798
629 4.7015270631074415 -2.642670007969514 2.577007464700459
633 -4.621280167095471 0.6693806626003903 -4.11384187337998
592 5.260383696381711 4.341568839866388 -3.545556273014118
414 -4.349171590302513 1.0350003825298892 -4.916363805262069
642 -1.8155138963001674 -2.0954077761329524 3.2494810953629476
596 -3.5133076948497095 -0.35118957192939315 1.0020088443888189
601 -3.5797056986669515 1.069479335667472 3.7616295472894294
651 -3.789499008131806 3.6718462805421432 2.4448407650956905
610 -0.47037534657344604 -7.152930805384406 -5.361899366868563
392 -0.2153542810119604 3.6704752825643605 5.594359915539394
665 5.68215575117424 -4.6914164778660075 -2.72971553561855
619 -6.893970139188281 -4.643392194473158 -3.5187684057724624
450 -4.56348693262894 -4.063102840372484 -0.9415137616525547
401 0.7128165642151794 -9.195719964896163 4.623040870220096
669 -7.390967628553777 -5.106373507336695 -2.1533387573495433
674 6.184315917767303 -1.5282062392481346 2.9690688430727685
628 -6.458661347796978 -4.429000121461602 -0.5209522827997495
673 1.246420594650452 1.7338301873560014 -1.5899125411814643
634 5.67748949630428 -1.514467877445816 -4.594250603093444
637 -7.227507731671505 -0.48439217200363344 -1.2297437706001892
638 -0.3886426028214943 -1.4750787544285093 -6.662037997477234
419 -2.97433337702287 0.5160260135550615 2.302900849065354
646 3.8492752240985384 3.962745788881006 2.5430517076976327
647 -3.2129507222177858 5.754899907995519 -0.04333577891919875
423 1.683096295692499 -1.5958189259457012 2.3795065258005743
656 -1.7314058550946394 -0.9834713794866425 -5.391857003310728
655 3.2174417726309272 2.3280815990698858 1.4557439651720099
664 6.292197210932164 -6.444179149984814 -0.9257124503733584
659 -4.830079877901315 3.6019006654047496 -0.03238504832023934
668 0.6708437127318669 -2.001229451378468 -7.342511037470777
465 -6.372429352367577 1.4821930551572244 0.43108184699636815
459 6.926361641611331 -2.674854101108565 0.09745620258427184
472 -2.6032163889741566 -1.8304196260398213 1.693681735741982
474 4.819088444572253 -10.436340706538472 0.2708044570668342
468 -2.4319110061991713 -5.934140628751708 -1.6130078122939429
470 -0.8662142398713764 1.0656105229270532 3.0457612420120084
477 -3.950598498973379 1.019283819554395 -0.995368719296862
486 3.9745461240251942 -2.7906298944380694 -10.426040157993505
495 -2.665402136271911 -3.311655689465156 1.0936636024623376
454 0.580006124241105 2.7165608223738733 2.091829735515236
671 -2.742548750484174 -5.223835519298396 0.5752806560776137
540 -0.8551404851750559 1.984840273994718 0.24473391302310818
451 1.2214273916965934 3.311837439843543 0.6603535104286593
456 -1.5698442848749148 1.4960728340847391 1.7310756241939247
463 -0.2443761134986329 3.7313490070157327 7.812309871185311
460 3.203341957910417 -0.19301708106682666 -0.9057647450814438
464 2.8018842129320447 -3.345030569807433 2.547391403225001
461 0.6349732618901626 -0.8947160787533733 4.009723124355695
469 -2.205146213694336 4.2659561248130355 2.8998166468288766
473 1.9595384738413737 0.4371669812664235 1.2522755111541541
481 -3.270428007349234 4.1951602009004345 2.79379221527323
483 -0.0947325144992992 -0.2352263104915565 -3.8564571097134843
478 -0.25322824509817343 3.4858857593042525 -1.9226788679572018
482 -5.244326006392975 0.9517787636346206 -3.010676315506715
490 3.9957963286939555 -4.823807989167623 -4.057586639340809
487 0.19912293319818616 0.4772751337364532 0.8505254806039573
492 3.7585655674930685 5.3734254118771165 3.06083569658019
491 0.09094145851499824 -1.8212776599519962 -2.4232767377229356
499 0.905305338336354 -1.3872337805877113 -6.102865289179727
496 1.695549819667067 -0.585135071603476 1.2670350829036725
501 -1.450681256554345 2.1807739832101696 0.12536991465362424
508 -0.1435078956037473 6.4361789622644014 4.000355027487254
510 -0.10120062313282135 -2.286809409097482 -2.901831805107379
504 5.87410784729308 0.8960965396772997 -0.19017510315123176
506 -1.325778523379839 -5.342629863766582 -1.9471667543030537
517 4.313337384964313 3.028143786065358 -4.374238487650387
514 -7.2164718468321905 -0.6371656787002576 0.631419005182734
513 -2.4244670022977073 -1.5037420235023489 2.88862700163722
519 -2.9072656990466035 2.8397437101446403 -9.228390612890482
526 3.721368814834189 -0.4583244482993798 0.6856414571915811
522 1.0057506393450992 1.9368704047704361 2.0629040391093088
528 -4.41978056953873 -0.5322414447066568 -2.2573519855111597
523 -3.7743844416232752 -4.580972693803724 0.7992089870653789
527 -1.682445574752278 1.5994222255239956 5.142515196274649
535 -2.458169692734955 -1.50765943435931 -6.295291881240593
531 9.850770416911264 -11.18155269611709 -1.2842869758892592
532 2.9885361041214273 3.8058415702418635 -1.7757676114811296
759 2.1062713013499317 -4.434109461947239 -4.441484482672234
557 -4.30566574999852 -1.5308403220844677 8.300813937002129
505 -4.1380816894616315 -0.32841035542715763 1.3786910728021182
564 6.398647523317113 -0.6711595268854302 -0.9507530084036654
786 -2.415835563362694 -5.120848386721755 1.9078572684592126
518 1.708063873104754 -0.3221744491073665 4.214917387457836
573 3.869706588171063 -0.4560443154957224 6.376129198856428
567 0.9815355651014924 -1.4303636156565644 0.44342284889268063
576 -1.0092421999068477 -0.6322617418650762 0.0717078344125322
536 -2.373878874695083 1.6662945298173153 -5.117007838264401
541 -4.0521192158929225 2.234970688614878 0.9247363620729819
545 -3.2064216639456906 -0.2581002822127785 -0.05030812063042411
546 -2.9775401159057373 3.5987353652710574 0.22427615304450874
553 -4.8085239055959565 2.8245304502288833 6.31132718305262
555 1.2000573055731436 -1.877722566297746 2.371145149688076
549 5.167488637708991 4.779242440182658 8.226787418571288
550 1.068161840473672 1.1936288897433731 4.183209820635936
562 -5.516757753397343 -3.6636638620884163 2.5700848260803375
559 -5.977537593695566 -3.4819627076480137 -1.9431754753461754
563 -0.6716585149248616 2.4632205231023265 -0.22610780870593777
558 0.9452739501420111 -4.805481565046436 1.802253990751313
560 4.075706282048499 0.09133781111423805 -3.538715806798181
571 3.8155331769684873 4.899989097438252 -4.520864177139254
568 -2.9367866205427333 5.7865065528147275 -1.262910360156004
580 0.6219082865773577 4.1904770575955705 3.1681542436964154
582 4.1397594283715815 2.609324924197097 -7.76001418884399
577 -1.7644844180437986 -1.675391526985898 -1.0651278626040215
630 5.064724351666111 -3.0522830524800266 -1.7376547636407307
586 5.807873856343988 2.1194658509101543 -3.2185605675339115
591 -10.780963721178848 4.772161129497856 6.167455180446226
598 5.021492600214594 -0.9731853712410817 0.8097015862319827
595 7.354746484718607 -0.6480660624915945 3.643303149422038
603 5.93258664072111 0.31551033510726806 5.74907348925224
604 -0.29291292244300193 -1.2960099882887177 -1.9588059081935911
609 1.0623323720431954 2.386990979020988 -0.4523321959161298
616 -0.024718591043111846 -1.683122811911412 -3.4213559059861742
618 0.024439987122851732 3.2236447943801414 5.22290290005992
613 -3.7536938965370177 -0.0476642588635617 -0.7790190928761898
614 5.904599761345955 -1.0264087010446405 -0.4764408310520065
625 -3.0182632223531183 -6.864735347579016 3.7451752431075014
627 3.8354590744146804 0.9944130326094622 2.281599984459618
622 -1.0202976796199477 -4.801395629950411 1.046491872226253
623 4.115640089953173 5.275733531744305 4.375561294176065
589 2.192518376713721 0.3620670267950311 -7.678518494329412
587 -2.649111654282087 0.2613354878638573 -0.9260387308638437
590 -1.81818453977022 4.9741495812255305 2.303827079809914
600 4.4274126296147 1.248891265674155 0.5982913431121089
607 -3.3615531804040577 -1.332974128392817 5.416294465000134
608 -3.971823906057625 -5.576132036012559 -6.516838067966978
605 -1.1110906159751552 1.1402929006766325 0.49799102147022617
617 4.1384943609358675 -0.8056253807024035 -2.0627122551801214
626 6.040155620157526 -3.495860440982343 6.4069866844288725
631 1.4879968250636257 4.098300101417665 0.8527576895753196
632 2.0126192358347135 1.1357052718999812 -1.704266339654155
636 0.4865657879569536 5.847296321048908 1.1648620196624395
635 0.3609273829702858 1.4836319331467178 0.14146936166842441
643 1.2126085188692088 -0.9393141028391487 -0.043367502552910074
640 0.508492351061086 -1.8521447196291707 -6.979104949527245
645 -4.27800223102789 0.24056432279665957 -3.8896241846142123
641 0.052461477318439524 2.255464461568792 -4.557811538664929
652 0.3359180776580226 3.108397773834041 -0.09142104141649336
648 -15.032964034643248 -6.28911712147544 -1.6792541601241355
649 1.4030550917640552 -1.9458961327114528 -4.731274943489371
650 -2.1352733575826712 3.3101379473429584 -2.840117737790414
654 1.6353671737979465 -0.025368002368525863 -0.13832200098954378
661 -3.0456555544348047 -2.671304706970797 -0.2342821057657917
663 -2.8206354764238455 -3.39073582771884 -0.36163571642281406
658 3.422556886271947 -2.234744768492958 -1.2312759401443236
662 -0.43858309692202735 7.808805103613456 2.226358075000155
885 0.36543497767580396 -1.1364174388440909 -2.0924331202214206
670 2.398814078967297 3.6346471071643474 0.6877480539595168
667 0.3036730809926297 -1.0537582765534983 1.2269612950819389
666 1.2610745719516054 0.7992746841815507 -1.098026943601325
672 -0.5668807278095557 -1.3465413716909995 0.7000071204700975
675 4.125120028294377 0.06344848093999098 0.35244283439040863
683 2.2527426233232495 -11.657113733411148 -2.065916316209364
677 0.1308706679191767 -0.4597677440600817 2.960267515290885
678 -1.993670909784268 -3.5525626943894055 -1.1901518244464715
687 1.3092259223304532 -1.2191406251546109 -0.9555634024523503
686 -2.2091063998277223 8.131683789201894 1.973135108580438
692 -0.44899234710039027 4.850183521282802 7.164640113444468
696 -2.9349389613644394 -1.1895519771640726 -2.8229388443719925
701 1.7752947151186131 8.630808069163818 5.869787808683967
653 -2.614568195197533 -0.683602568288386 3.9696302510473025
705 -4.283766311881958 0.9900500946278766 0.30759834843001116
710 6.152550887741943 -4.419206202553749 1.3479550577147354
714 2.448533960444102 -1.9224600253745041 0.9703427345627232
898 1.3562411885994685 0.11549856977855547 -0.730373977073281
713 0.9275719534770848 1.814081519722808 4.51901388952483
455 -5.282359869715544 -4.2657261121367425 0.4608359216845484
682 -5.732287694535905 -1.5484562608823045 2.0565531463004416
732 -0.172799639007604 1.6660348006559662 -5.245025654297373
691 -0.24738134684414814 5.243857936069926 -3.401931469232966
741 1.4537236740798105 -1.5434442119492813 1.9064762312551764
700 -2.540669515291354 -2.413800178396118 -2.8817281207762595
695 -2.8300720742542227 0.02498859889314325 -4.1908484478971815
750 3.9561762453042326 -0.21797772624045386 3.587555514785003
709 1.8607577391116792 0.5881465319090758 1.61753558643695
704 0.7574598036202077 5.356821312646363 0.6377774655961057
719 -3.6987159433020014 2.6795263145988617 -0.5543816129763365
718 -3.2392619035731007 -1.2508249558378643 -0.3645195629896182
728 -0.6587661496495313 6.303628115999514 0.08091470460477562
722 4.164654730794118 -0.9256234035267088 -7.455233594979065
723 2.3737600010511577 2.3005356961980907 2.8686397232833283
737 3.3579243552936364 -2.401691755282275 4.210360410636719
731 -3.1216806992662565 -2.8058666195674715 -0.043537821252312425
740 -1.6417127039313257 -2.8500817996459786 -0.4962975726307952
746 -4.75268598559507 5.556603905952027 -5.820742085001391
749 -1.2325593135761184 -1.2983055199001539 -5.836478492209571
755 3.7281991870048934 1.461042082220376 -1.4472960137163016
754 -8.653185958662512 -1.528104632934985 0.16052600312399004
764 -3.5319050678461816 -1.530892019642382 -1.6382805519724835
758 0.2715916292873929 -0.07299697391947156 0.6981224506152905
585 -2.7896269468325445 6.806005827496355 -4.609778817291786
773 1.3795570148787553 4.4766472481687885 -1.4554339156830165
724 0.5788621010781203 2.1763509009918764 2.432026782521295
500 -0.9671678660024821 0.7422269508561948 1.1099550613619917
727 -4.566434127928364 -0.4048996199833521 1.1788585639241214
768 1.9098789114040828 -2.2920898987973914 -0.7572719239726203
509 2.0772614214277425 -6.267685900229307 -0.024466247347548566
782 5.75709172475774 -6.768465609982822 -7.478060664245972
736 0.02748837519953973 9.942602853305157 4.006630489402832
777 2.8994848156457125 -0.7383244497936198 -2.6654506343240136
787 2.6743740072603512 -0.9846746053773283 -0.4955928126651723
745 1.3003071502096526 3.188812475871238 0.5972083599743844
791 -1.033396738360724 -0.319643334931066 -4.617448692496464
795 -3.4010759474385206 4.088375456916197 1.2062390168196764
800 -1.1044623526956245 4.3175305666447565 -2.4020300916888644
804 0.9961249748044593 -3.5296562424137554 -4.02477224699983
809 -4.920894511184009 -9.144397301736769 -5.892903210763295
763 -0.5420410993181662 -2.925228111711285 1.6722766979878099
808 7.304471624791276 0.6017822859780974 -5.227885525385967
813 -4.2264927770656495 -1.463030466358918 4.138982594654634
772 3.056370679459896 1.3704749647976084 -3.9113304798437487
771 3.3815995904721325 -6.853082052072621 -4.697590155873144
767 3.381286614700813 2.5341675933093066 -0.35973255227823303
781 -4.194115121829777 -2.530784736401833 0.6355455359216317
822 0.8222286026905569 -0.6950329151241704 1.9801719206358561
776 -1.8030409663975009 -0.18285311569400528 0.6152066456991042
831 3.498649953848743 1.2417498684245065 -4.476769450153673
790 2.3999017598612107 4.004795772936478 3.407052597580538
785 -2.271579452595216 -2.2825921933740205 2.5935295438299804
572 -2.045432850586068 -3.591471290615692 3.465762410635502
799 -2.8757917801332944 -6.995056297874709 -4.756666138251733
581 -2.2303636862141993 -2.135046657912636 -0.05341086883982262
803 1.7192666660407399 -1.681991791488234 -4.189088406837828
818 6.370427734412902 1.7205173635511435 3.155117677972911
594 2.4265007880856944 3.5975148984603345 -0.8774916384343969
554 0.9194610228580707 -1.0772504272794392 -1.4001252213651951
827 3.748660902841834 -0.08468053564704968 5.111904774899029
836 -3.958251824068476 -1.4972276341006105 -3.6399747825006123
612 2.7640348220562156 -3.722275413543064 0.4192459856570363
844 -1.7821575718765856 -6.918972886575389 -9.224637962907813
839 -2.7689167773564836 -0.4170026582682368 -4.761437100566628
845 7.007672504372883 -7.407256214778347 1.1849408444861527
621 -3.3142469326945925 -5.813609010043948 1.19604426513824
840 -6.37969671006916 -4.358927707292407 -0.5566567140286239
849 0.3387512954784048 -4.11180377691251 4.9006806307825554
854 1.981263845518939 0.43942555242267595 -2.0686378355716246
863 7.279438956362482 -10.108788010003122 -0.44668106634422217
858 1.7705048190672754 -4.968205248305238 -1.4053858385025786
817 6.290515500305036 1.2253002165893498 0.2299033711165275
872 0.7376216607016962 -1.0148017133135712 4.36725747471437
599 0.9763000975429525 -5.6876061545096706 -8.015390683910027
867 -2.5534938766653266 2.088353104279166 -1.7847818789699372
826 -7.433145297733331 0.12407898064144052 1.9634998754652329
876 1.254265951405921 -7.399782061315471 3.3102411267174676
881 -0.38782722746196596 -2.322782726382128 -3.9496887720595626
835 -3.429631434221128 2.892452109638095 -1.9549890451518759
657 6.466117138698462 -0.1732071716575484 -7.426131847764273
894 0.1752298546594313 -1.661883737273602 1.8074166238210858
853 -0.7921555492094466 0.29715955342557077 0.49678218186874423
899 3.6812522566366574 -1.3167004315744906 6.699297861327365
848 -3.1162648627587513 0.6621678826564404 2.3225345954217667
862 0.5901167273301643 -6.1476192399612914 -4.203670427360065
857 -0.12038811388771888 -2.6400064110427124 -0.41876083749194626
639 -0.6923496459947989 4.112949858226907 -0.4686953272096516
644 4.75190557110675 -2.6919066744752875 0.9702013875743208
871 0.10337629157897596 -1.1924481680449222 -0.38738119832719026
879 -2.830811958816306 -7.065203343170184 -2.5220189863274673
880 -2.1770744017488823 3.278252464240691 -1.0288284991819572
875 7.0280692971776535 5.254491475412969 2.9094404747004954
889 -3.564788040773262 -6.025320450190802 -3.1932707358183112
890 1.265715760492357 -4.0189833700602176 -2.635284237449383
884 -2.148597381369719 -0.16380284182845428 -0.3792232046846451
895 -2.6322959762528058 1.6196720032303187 1.362073902882135
676 4.275719009027335 3.4940415709945447 -1.786496214682223
681 -6.416726884785088 -2.3216629517552714 1.2618588529233068
688 -2.745672079065406 4.467794562846394 3.58834100612275
694 1.4536015816834382 -1.126150804616342 -1.3143213624158347
699 4.2452453899499165 -1.5698285743307356 0.49894413734251813
702 -4.9231703507227005 1.9848999107294034 -2.538190688614311
711 -1.391116315725035 -3.4239821787392817 0.6183412478009815
939 -1.007222719748671 -1.984012522484694 1.8599579619502533
679 2.475208453252244 -0.8272721795071325 7.1932846949076765
685 -2.3529382666294505 0.4658705178448939 3.8312673051909605
690 -1.3037146305948748 -0.9785311380399194 -5.550408049061308
689 -3.631554435138104 -1.8284635047529059 -4.382420009398431
697 5.127368800889015 -3.711624903314885 0.18283399595205513
698 -6.754980743112831 3.2857067355055656 1.9467690523401364
706 2.648194551468382 0.9155589953487047 5.8181372611301985
703 -4.913846396044863 6.850991966333037 1.819767927568075
707 -2.1008452926508054 3.7444889857281876 6.611750472699368
975 -0.33194267196067195 -1.660127277134679 5.503862214877849
715 0.2056402569636876 3.648249295055401 5.734578969334108
708 1.499612006423256 -2.0488039968760448 7.376085066414133
712 -1.3832446227486903 -1.403925870791854 -1.8240068141430958
717 -0.6708771564401443 2.718113165218516 0.9734503549610792
716 1.3643621931200198 4.2690765756676905 2.671301604648544
721 -7.6310357681458045 -4.886674251585995 -3.016917152039844
765 3.5485273668256827 -0.056832834906103885 -1.452721651388283
726 -0.8620313097748971 4.149114216920308 1.068549961235096
733 4.712162041388596 2.9090529769822258 0.346439292276273
730 2.1509638994493536 -0.4773264937221145 -6.686235811773017
729 -1.9401574408664342 5.915980860639229 -0.9932627616224818
735 -0.6039331159422356 3.544541260650385 9.42362618119949
742 3.1945506464355655 1.1861496872741728 -1.3051182553304863
739 0.2576490572830685 3.9377065496426105 -2.0590132577658657
744 -2.8514331827608257 -0.6293372250294494 0.23918793723967388
738 -2.193298871673625 3.278034636272343 -1.352816569819919
743 -2.117122342442124 1.2312930899661634 3.9163887026481423
748 3.631676998727905 3.853719445390506 -2.270784743586518
751 2.225918387984199 6.653939340833661 -4.194208392570309
753 -4.203556182833084 1.4273300816980994 -4.674144938644481
752 -2.555993971878601 -0.6455663776252892 0.09735080509254841
760 -5.29662368339303 0.9067007736770027 -2.558145542278089
757 5.660747729223141 -5.69732052468821 3.45149823808788
762 3.4804457707838146 -2.447109574879216 -4.467084713825207
756 -3.4502325036129156 0.5889242897068385 -1.310187712214372
761 -3.117634299251885 5.919193850952212 4.0606547824717065
766 -0.0951908404400184 7.163303787836237 -2.2901530068998115
725 3.999137346412611 -2.7138106819072876 -3.500642760158313
770 -1.5680513752661134 1.874439706742476 5.1972602110448305
774 -3.9743030998913444 5.788849401294718 -0.797703646239629
734 -3.489025435030722 -9.93874211230847 -6.639308062179563
789 -6.197687215369387 -0.20790640223116083 5.8038224589947065
792 -5.2925509638948265 1.2351916867729251 -2.9909149140672855
794 0.8805234214061484 -0.3627177898456178 5.67332288071314
798 4.341554403177254 -1.7263971851337165 6.218968145058173
769 -2.5032027384191613 -5.377204945103269 -4.079168989645236
778 -7.469514467574709 3.4820128974894433 1.054579848733324
775 -1.8475150845257196 2.889146405877451 0.03395993148409687
780 2.6271352189724593 -0.22680045593001674 0.5444209777754488
784 6.799179132963964 0.8886255339870106 2.0857329035670396
783 0.29252327634311226 2.5701500245098643 -1.5875817777411705
788 -1.1158792075615689 1.3629440330154365 0.5898448237029
796 -2.2185669423065955 2.829417851407799 -2.7763405335859246
793 1.8501886344111977 -0.008731740042096071 0.33152441491167206
797 11.852830503289026 4.515676065327031 -0.7180315285377085
805 2.42800178538299 3.696272666050779 2.2987587100904525
806 -4.926657658850385 -7.650085469033815 7.569210619624312
807 -5.477374142258419 -2.0537926310994896 3.86445885109466
802 -2.8905483555645324 -0.5436167736377864 0.5841895635582736
814 -1.1895708664362852 -3.943409730563475 -0.8913275917483832
816 -1.4002053902533549 -4.492718147180853 0.6133722561876098
855 4.629011575107508 -1.6057720552281987 -7.219034151229334
812 -1.730396493482206 0.5875195101116314 -4.5299940775509375
823 6.41592023610373 1.426936783430446 10.221290951319716
820 2.8028448713569714 -1.5686571761427364 -4.744440473039336
825 -1.543089210667812 2.634358399683139 1.208198948574838
821 2.4822723134751543 -0.9324435531953401 -2.7503092907849727
834 -1.5627256329695245 2.925642071360237 -0.7316805107886172
829 -3.039887362053515 -5.40163271041403 2.6215664849196245
830 -0.740688347452435 -2.054137874480096 0.01071820905565516
841 -4.457813409285595 -9.417153386782244 -1.5090720899855645
843 2.7266587702432545 -3.800819870071643 -1.2753137665120668
837 0.1096787187869326 -4.773488729947518 5.167956710119522
850 -1.737335668549268 1.4567681060351776 2.381288488854441
846 3.5562441925831814 3.5207252117110674 3.8717597306386438
852 1.6859213352073819 5.721531773965939 0.14998352863231373
811 0.3129419240733207 -0.26000537069736607 1.1958380439302705
832 0.9395628507489033 2.7138918022156577 2.8132977956423444
833 4.466151550821937 0.7838826248167758 -2.0646768280960863
838 -3.5683683263242525 -1.641159860269401 -0.8651413272698849
891 -3.582709550166903 -4.127898528474554 4.9311928579555175
897 0.04758681644115893 4.500914680722521 0.005672111088061725
851 1.4209704254083027 -2.5851756234357968 2.1857452207163885
847 0.054244513273090725 -8.48870222489045 -0.9695652425592963
900 0.3372710587420083 3.1077919879212352 2.2661236775461133
856 2.7682480757602153 1.1338420391490662 0.4634087055820068
859 1.9075706851776013 0.6254231220849155 2.896875433808392
861 -0.6963889016093328 2.4038786708347026 0.4034000206526235
860 1.7745709112024985 -2.776743960632579 0.1023912479201279
865 2.780548331463846 -3.7066099138430686 -0.9386979331137104
868 8.935354386934842 3.9476255079088336 3.7059553647968686
864 1.3356078265775695 -2.217979395003002 4.1153876243725325
866 -1.206102740862091 -1.0569321900189619 -0.18003733815485964
870 -3.135538750802363 1.9725860767509034 1.1031800658941435
869 0.9197586286583961 1.5501363632264227 0.49574032692364
877 1.4273408725477472 0.5928091411650331 -5.185427383397479
874 -0.6620865448374664 -2.1764159614919407 0.3229655358723041
873 5.180084580217224 1.6959255935184676 -2.3448391071815244
878 -7.526976475402096 -2.2712067774599642 -3.9050117452471897
883 2.3646350658114432 -3.2083369977252314 1.8465024397275953
886 -4.972843582561904 5.709652065284681 0.7015376988167727
888 -0.619394156067173 6.114298929767675 5.034026913977501
896 -0.3897957872097821 3.2748943495024805 1.0221269609332753
892 -5.109093703483897 -2.4613187429031247 -3.3152336682803987
893 2.174731499698855 2.094099595063124 -1.8852421770935532
908 10.621062586884358 -3.4810373901490697 1.8677359167555825
684 2.1621473440826713 1.2334659142725959 -5.192444220588062
917 4.271482895732697 -1.3818193595680153 -0.3408847846286458
693 -2.7261833839300293 -0.8754546201148609 0.6347972308199566
912 -1.8124721350771353 -0.1454790168374094 4.981861934929016
921 -3.6933416637931598 1.5827541120646114 0.18511095208898334
926 -0.5200640713982414 4.894226371886209 0.20470646675426996
931 -5.685652247480194 -5.3349869286234375 -4.328997342819639
887 5.306445995884356 -2.550122315748216 -4.023693233660131
930 0.9153136971726857 0.10499797536391232 2.405809887462801
935 7.195166620571804 3.736093254986615 -2.041241392207788
720 0.6217632582189937 3.2956152837892296 -3.4212163099693256
944 2.739572197697487 0.14963211039817884 -0.23827205501495927
938 1.7663494129638504 -2.9503354528464936 -3.5917114102295553
680 0.6627888544978171 0.33069220497671575 -4.021700667511705
907 0.6772983592661672 2.6882994960977866 -5.246919778659775
948 -1.2022150553239992 -1.625783632245953 2.9328204593373504
906 5.787853345523765 5.63705548694847 6.279677977355775
902 0.7335007242783561 1.7178632423767406 4.679071298311486
957 -3.153222113116027 0.04864434046218182 1.2404067503637666
916 3.604561098270703 -6.477996704786618 3.223197027083788
966 1.5421695811058012 1.0121287812728625 1.6641253750186602
925 1.936497316740264 0.88253275047887 0.6357029881079379
920 -3.4079958412174536 -5.669614358600725 3.1178876575292698
934 -3.619414293170915 0.9160957401626234 4.472235750962538
929 -1.8515392576930134 -0.9589389530149671 5.479589502194079
984 -1.7766841389878463 0.009731874960558854 -0.6840173098040848
943 3.9088375138198734 1.2017027837546739 -3.8129292456042077
953 -6.594938841734239 -3.074184807705014 -7.602897384909086
947 0.07404499837576488 2.578645612997415 -5.637946260532813
962 1.404546177170081 1.4450385458463977 -5.997146498703083
956 1.0446054857312261 -0.030240396010648346 0.906077067519891
969 2.51362531172094 -4.62106205313674 1.0765881797441597
970 1.6977273262361607 -2.9833060783485754 -1.1023510415857716
971 -4.163069609893298 3.467640163332712 -4.807437650271402
965 0.022528828739739912 -2.757203503346505 0.2902054677682543
747 -5.752859899480176 -3.5929549428808154 -2.09784100378285
979 7.365072334197517 7.351146960393701 2.281240549252309
980 -2.561726771726036 -2.6709336726133794 -1.4069185064402416
974 4.997861057737708 -0.048469396308034554 1.541943394220479
987 7.932530285590536 -7.161299070226805 -0.7431654222707643
988 4.576699440362628 2.3616707633408263 -4.9682929105504545
989 -5.896855759652602 -0.3151904198720728 -4.136259849452766
983 -1.7201311706065048 2.362498434290725 -0.9852269388564605
810 2.149389111830446 4.1955590641497995 0.3010984711200067
998 -7.844780861132329 -1.3965387994225813 8.89881301646163
993 3.8959862533066985 0.4228163739541729 -0.4672520944390345
952 6.758675208284926 -4.136499291795492 -3.7415752427642586
958 1.455250834111016 -1.8606910393319749 1.5004588560708405
1002 -3.700309445902579 -3.5293418259664167 -2.011979927898956
961 0.9764861657477182 -3.081331559685043 0.3220041884084112
967 -1.467439159140331 0.31444329614078 -3.154649114099345
1011 1.055452954268358 4.09908116019581 3.529912662147164
1016 -4.373959325753194 -1.833198820560487 5.870361455865767
1020 1.7857155202648354 -0.38733592289406127 -3.933053929478817
1025 -8.698776106495181 -3.645706827318761 0.3603457939865824
801 4.060952550076538 -2.2512919862790937 2.4512295490813822
1034 1.4413450170227236 2.4934442016424887 -3.507987587115417
1029 -1.8892588864257351 0.8075560352087593 -2.7578787253062034
996 5.954168028995925 1.877714612763035 -0.5752838719629735
997 0.6467192350160859 7.0887072835936324 -0.35018467737366166
992 0.8816878077811817 4.645175747053541 3.6425530883970523
779 3.151411211473776 -0.7573078905531451 -2.0011428543478167
1007 -5.046929374116134 5.437895283634669 -0.5805059267380005
1006 -2.241459169031651 -0.7488597726131692 2.295083214273412
1001 -1.7612609027937987 -2.2808993817109386 2.5205043723782166
1015 4.375712158319388 0.4938798550148707 -3.065979025114029
1021 -1.8329454227635615 -2.6063724858439605 -4.5988276190306285
1056 -0.9860225651012969 -1.3506131323083386 1.5025384421811385
1024 2.013899111088719 3.2731680737810382 0.2217500663292623
1065 -1.6494261893715185 0.37610301682696823 1.7003908573036564
1074 3.0373015755209556 -0.4021049695975646 2.0731558095104132
1079 0.38954973323332925 3.1835689867900343 0.0038023036688617307
1033 -1.0946324948300803 4.844875698102506 0.6122602408715767
1028 -5.979853125045468 -1.5296534514444466 0.22458768723128542
1043 6.6237864390242756 -7.0202601040342225 0.02252549637730812
1037 -0.5290439503590411 -2.751010346924122 1.799588627278585
819 6.403187099331113 -0.7061842974256414 1.2449846370338744
1038 0.7476881136501651 2.480933940550553 -0.6054692014323346
1047 1.662279882195271 -1.4276498555782255 -1.3791122440003387
1052 3.640673369961725 3.3383129927759483 6.0876272453342075
828 2.3489921701606704 -2.6807806584244913 -7.7192124181740684
1061 -6.830089332270526 1.4166630046024735 -1.245090660897668
1055 3.618543916277488 3.0091504430479055 -3.0895164651990714
1070 1.922362353398574 -0.7900579723247295 -2.948141795267597
1064 2.665633997325472 -1.0449493600688042 -3.7096668691079127
1078 -0.919071022149912 1.2728787719093066 5.101494137725466
815 -4.0566886765091095 1.049913996485724 0.621649484521015
1088 -2.9239315304704556 1.4637865510201107 -0.8050951694144279
1083 1.991405255269845 2.8833342620462226 -5.092432006751731
1042 -7.811542416178032 4.234339129619311 0.41368385844252425
1097 0.22213359669084085 -1.6729662341364586 -0.7547003128386313
824 9.550840080626104 -6.057876321907854 2.3701092212147836
1092 -6.229888934386604 -2.0399127587152455 4.1730272807406354
1051 -1.5062086792527667 -1.1083842285412622 4.925934105757511
1101 2.3860127705643546 4.584892635655361 0.12434684240279605
1060 4.562396204507588 3.3512623165278184 2.754568508263173
1069 3.8047922890594914 1.6837964268509602 1.8314474515477623
842 0.7146542931416323 -4.213385274100726 0.5721740239511681
1110 -7.293045786681141 -3.757639923411641 -3.9254164727148173
1115 -5.775573432837087 0.17479807567083966 3.313043844470856
1124 -0.8504102488976001 -2.994210820891117 0.20164838881778255
1119 -3.835684443186759 -3.137540950269168 2.337836892997973
903 -4.1293248099502184 4.833153525898391 -1.2146929617413025
1082 -2.1951728330421396 -7.533437321898148 1.727551345733993
1096 2.0212301576244225 -3.0073676205268476 -1.1723387171460513
1105 1.958650099826434 -0.5818460681494624 -0.42577023439699485
1104 0.9417678789846762 4.9731214964898545 4.534439977297122
1106 1.4158125109249937 1.34163216830206 5.207320963220436
882 -2.4112857154823564 -7.1406762431081345 -0.8330249205485621
1114 -0.044204000721709755 -2.7658236521887685 3.4036472759896514
1109 -2.6015355225189287 -0.5901935103396009 -2.6464237144756066
1123 -0.026442027503234117 -4.177578583463431 4.113286693774788
1122 -5.550547525193562 -9.19473638825619 1.1649636485332728
1118 2.267229697306331 1.6984737168474913 -2.9118091046548007
901 5.578987245678748 -4.614370330296005 6.227866698277043
1085 -1.6576802393045842 3.644971432275536 3.2656394915472426
909 9.3738905929603 -1.180315060246256 1.3803575042036944
915 1.843977833415751 5.574394329722287 5.91861684907429
911 2.0057221665718465 -2.0230311864159676 -0.6296115491025865
918 -1.3938134750929023 5.15864004374278 2.5350150143868495
927 -2.0020492658544407 -0.22325246080212358 -0.40635278458895835
1103 -1.4901429932730175 4.692301549895098 1.7048261869059265
928 2.6531844845134676 -4.918645108411733 1.5380915132129676
30 2.6658247026980444 1.1640138532504773 0.6551796294333658
942 -6.889773117320076 1.1780010086901291 7.562909224049237
936 -6.979766277398684 -2.993276983011289 -1.5384963395061102
945 -4.321442838563966 -0.3691659661979833 4.667982778746852
904 3.4120280019132063 -7.46305886023585 -1.9885792636126332
905 -2.4271715262264695 0.382035494801607 2.5559673120136495
48 -4.6301025848360675 -2.2109875625084583 0.3846949602892042
913 0.04942389828333803 -2.944992563147884 4.390320994980172
910 0.45440457328998757 1.0386065347404292 -2.2226663992377627
914 2.259338471580915 -2.714127347710581 0.6642507008700921
922 3.083778568283842 0.11140124843790176 7.2615750761096125
919 -2.149306243443833 -3.8317211564764815 -2.549043711120227
924 -3.05114709591213 -6.079265789066388 0.5175356869386672
923 6.801214188807389 -7.598626818203079 -3.730332722518411
66 -2.668234985830338 3.0006192423028013 -9.802870618928543
933 4.04921596713726 -4.939446904865042 -2.8027513322743407
932 -1.5114538997377038 2.16867667172789 4.8510940228399155
937 -2.2987925541935175 -0.8116962066926778 -1.2227483073405978
940 -1.369994044754191 -7.274410033967223 1.9180189279408928
941 -0.6349566879521514 -3.6520182131954195 1.6263691469980557
949 0.9147911190457118 1.9009429881896855 -3.3353668274407156
990 -5.684623264563097 2.367347251088516 -2.5872383576219415
946 1.0119102867761531 -2.315382496829367 -0.982971426785837
951 6.060567964676557 -0.2146597605922228 -0.11592122704244309
954 0.5566100497275467 -1.267721106771898 2.3177549461229803
955 -2.7191022883765394 3.230820404662641 4.20028826873668
959 4.420996311076063 -4.854622884454789 -2.6185145905642155
960 -4.713942970534553 -4.762351950379627 -8.444677742827166
963 3.102406831118023 3.2785996590113373 0.37886897319167867
964 -3.299959911991319 -0.3441133231613288 0.24212704835245705
968 -1.8001902472560842 -1.2324745618409099 -0.025582024634057066
976 -0.9065631402803145 -0.535484966147311 0.6324509706377432
972 -0.1517313509933485 7.533250807335495 -5.289542591074439
973 -0.08029154783290274 1.6706309335628413 -2.887185071560004
978 4.492570608819478 -2.215093906110247 -0.1431028334716382
985 2.4770118589204446 -4.372026076441518 1.7924703800547712
986 -2.8504430350669043 -4.257993512805016 1.9417000100227813
982 -1.531728639573865 0.7081765910528249 0.7671921719691508
950 -3.5930168318098357 6.768229708685747 -5.584640568155517
999 -0.7911091683441822 6.498941050499333 5.705047189075605
977 0.18504581044108884 4.3136794643328695 3.861174722264306
1027 -2.388078109937424 1.815704565409259 -5.881629287848101
129 -3.05098845361703 0.09096750075514841 0.6716500533302086
1035 -7.615135175807475 -1.3730691174905116 1.6078857968881417
991 1.2888043582348379 -3.450188347268652 0.957729417661843
995 -3.219392249258947 0.06935239618229935 11.598845543670512
1003 -1.9032527360217724 -2.047618470426532 -1.5531701547040828
1000 -2.180386275633328 -2.5610609169666185 2.971519258745864
1005 4.2219950744229795 -0.655725657974154 -1.182574336865143
1009 3.519745774082791 -3.546871304803789 -0.4624791948618455
1012 -5.551007418027754 -4.2942864252500526 4.134162150150107
1014 1.960694483298223 -2.5555268858719895 -2.8512555806621527
1013 2.2494837736437576 5.341282966177922 -0.5506386186650263
1010 3.858764607580873 -2.124951028959081 -0.2958022920862537
1018 -0.4824160176739765 -1.3179371982027217 1.2660688385117251
1023 3.934605170746877 6.00838945668126 -2.6153708285193167
1019 -5.723789713969514 -4.291926224752996 -2.7487901302682194
1030 5.302925721214584 5.0358493508867515 -1.0973732087007269
1032 -4.468504827417202 -4.272302814292718 -5.961992957308342
1031 -4.873435285012198 1.8631710614543668 0.41447886863592853
994 1.0197464438860817 -0.6014174505982476 -0.3209616665365337
1036 -1.352691579375643 4.466742399166359 4.867768871570113
1041 3.104225303363866 -4.389658600339181 -1.1098964526188073
1044 -5.030822926126269 0.9907525697564957 1.3826245723896178
1048 -1.443157675726201 -3.8413508043666735 -3.067816131800979
1045 -0.5208376334031621 -1.6840239407300246 -1.8096665678086612
1050 -0.3651850115388666 3.8925982173437914 3.0449735247089795
1046 3.8779653691128426 -0.004548328016864317 3.3634152392672965
1059 5.710506502218805 -1.1096837214929398 -3.6492216476469674
1054 0.004182465484128354 -0.5832887103242214 -1.5679777999484834
1062 -1.4959910605155815 -0.6007704799851311 1.246129988841442
1066 1.686868585143582 1.7336107404189454 -0.9307254217497031
1068 0.9938919822590176 -2.3392160220469544 -6.76295660842957
1063 -3.078258986300098 -1.33538941818356 -0.511599069501389
1071 4.517073119939289 5.119290833049756 -1.3910989318042986
1075 0.4133034060813565 2.3493554397198433 -2.567686075443463
1077 9.11034252349215 -2.3415263234148345 1.2781872409347856
1072 2.0355819198686027 -2.0251577624741723 -2.7288312926541924
1080 -1.8924232091557058 -5.238487298736854 5.009641626967717
1073 0.0699340198856584 -3.886087607249322 4.150448794473956
1039 -0.6842384681066588 -5.050182129359241 -0.8680216688361387
1040 -9.296025580086885 -0.20899909838280395 -5.892743153424682
1089 -3.6435857418113633 0.6165096413642273 1.2626242096557991
1049 -2.819800422423067 1.6765895335710053 -6.871222773004686
1095 0.04830319432673519 5.097941056782801 4.140792772060958
1057 4.204695656443405 0.6829412310898877 -6.428475116770354
1058 3.045038973220683 -3.281549565450117 -5.903558122758321
1107 0.17024342065624423 0.4518350653806714 -5.427835426918748
1113 2.6570002408159086 3.4259992734183817 1.4973672378592966
210 -1.5310084320697084 -0.40129758724038084 -6.563970667414937
1067 -6.624597440243902 -4.513522611332556 4.101747260229114
1116 2.247771431564631 -3.513275048877445 2.7271668694349853
1076 -2.1082530988821464 3.3666295969285156 -0.5312881808057505
1081 2.895670203685052 0.14866030120606505 -0.6383974556538283
1086 -5.778726843972129 3.3784913053029317 5.320201097990445
1087 0.9349598361758764 -1.923969620170924 -0.9482985423088773
1090 1.2905476263804305 -0.9848194294089684 -2.8472506415284924
1093 0.1240609228276974 1.3314795030748718 -3.0671585331288176
1091 -3.9104149023972075 1.2156489646750286 -4.409502480387279
1102 4.6547796801919485 -9.272210198635563 -1.8393622751706502
1098 -1.748943661080727 -1.5499700973534103 8.707697051421022
1099 -9.424354118207967 3.7960270898118833 0.07502881017365134
1100 -3.108339260712198 3.7737489538497364 6.18385801998682
1111 3.515561793799242 -2.503173104460901 7.076612024750765
1108 5.49403452798256 -0.41722043729051345 1.9843570067820955
1112 -1.0316588475750808 3.3572269598873565 5.023812725617627
1120 2.348181920540295 2.037368104244065 -0.36968476852720067
1117 1.5065790808362762 -4.93850020997641 7.084317455380986
1121 -2.7333568731518643 3.875096916918726 1.2457092446863907
1084 3.4760891633320083 0.7636410803827448 -0.17986858776705492
1125 -10.184207609463916 2.5440423162937407 6.84710196373526
