LAMMPS data file via write_data, version 29 Aug 2024, timestep = 11337, units = metal

1125 atoms
2 atom types

-2.6834599464431372 25.607415946442853 xlo xhi
-2.2090651232289593 22.291547123228717 ylo yhi
-2.652024644085957 28.45297664408578 zlo zhi
-14.145437946442994 0 0 xy xz yz

Masses

1 28.0855
2 15.9994

Atoms # full

3 1 1 0 0.9016186338550285 -1.3453935138672601 -2.17711953270695 0 0 0
8 1 2 0 0.4323227138719208 -0.10939526300097446 -1.0013323789168005 0 0 0
17 2 2 0 5.92227056978632 0.016050448659131966 -1.1314291493286315 0 0 0
12 2 1 0 6.641098587313647 -1.3848267732477137 -2.0542982678600965 0 0 0
20 3 1 0 10.93249471768124 0.84743957013319 0.18007979852347855 0 0 0
21 3 1 0 12.473910548014686 -1.4938670193328534 -1.9224218439574163 0 0 0
26 3 2 0 11.910677629119757 -0.06912783331799455 -0.9643027720811739 0 0 0
29 4 1 0 16.82729722187402 0.8875169640000449 0.3158056768390267 0 0 0
30 4 1 0 17.951693413028288 -1.298995002082295 -2.230461615145993 0 0 0
35 4 2 0 17.552195991236445 -0.1842066068164825 -0.9129770437370557 0 0 0
38 5 1 0 22.218281744590453 0.7709649319034613 -0.14756067244529314 0 0 0
39 5 1 0 23.73334096351291 -1.6141116077484858 -2.2230559020083147 0 0 0
44 5 2 0 23.28275768331328 -0.4493121325250584 -0.927147115643328 0 0 0
2 1 1 0 -0.5352167239043517 0.8522132130476932 0.21055792139621277 0 0 0
7 1 2 0 -1.3094574177227751 1.941919529797178 -0.968919627339891 0 0 0
48 6 1 0 -1.5682254169415533 3.4819624034032426 -1.8915027428864288 0 0 0
16 2 2 0 4.2966120841727315 1.9570184264984753 -0.9373388417812809 0 0 0
57 7 1 0 3.9509841333513487 3.2370373545021396 -2.1316039761991292 0 0 0
25 3 2 0 9.996473579302641 1.793936123136418 -1.023240878503846 0 0 0
66 8 1 0 9.34938866907374 3.289818516223467 -1.7900805395390753 0 0 0
75 9 1 0 15.608760591069313 3.3978887021132236 -1.8549581678083866 0 0 0
34 4 2 0 15.975665138607273 1.8538649458098337 -0.9426200809053007 0 0 0
43 5 2 0 21.161945418939755 1.8855286822453943 -1.073230151039301 0 0 0
84 10 1 0 20.57687371437184 3.441726469606456 -1.792199613640553 0 0 0
47 6 1 0 -3.0864720460416173 6.163711111549248 -0.13537856420113048 0 0 0
53 6 2 0 -2.047911508181511 4.924160849658647 -0.9289842830656576 0 0 0
56 7 1 0 2.6524218007102878 5.761196782752792 -0.0826905561061424 0 0 0
62 7 2 0 3.606461608537596 4.543894527688619 -0.9874806357452666 0 0 0
65 8 1 0 8.025316489342195 5.79235026182299 0.3137839802778708 0 0 0
70 8 2 0 7.1950863354242545 6.920248794735387 -0.7949217902521706 0 0 0
71 8 2 0 8.865554304542616 4.803976621750337 -0.918887011240413 0 0 0
74 9 1 0 13.989712431849984 6.078727611256318 -0.1843999506870877 0 0 0
80 9 2 0 15.147140669787838 4.960929740288724 -1.0118822564848917 0 0 0
83 10 1 0 19.378808435210857 6.0062465853203735 0.3045833445307462 0 0 0
89 10 2 0 20.152097136952428 4.993748297042036 -0.9365809690885032 0 0 0
93 11 1 0 -4.555150611750239 8.633274631479466 -2.1938039846690547 0 0 0
52 6 2 0 -4.049004919862619 7.427391898050829 -0.9592982615370587 0 0 0
98 11 2 0 -5.015319286467736 9.852403145830905 -0.986057318427612 0 0 0
61 7 2 0 1.6067182374476765 6.98851522127029 -0.9518445670354116 0 0 0
102 12 1 0 1.294368325509863 8.177523644824927 -2.230296418484862 0 0 0
107 12 2 0 0.8410404031122249 9.380465279080273 -0.9831836080310123 0 0 0
111 13 1 0 6.811398052704873 8.052479422623197 -2.1060437787422686 0 0 0
116 13 2 0 6.515874889642045 9.36342668544426 -0.9496391313649801 0 0 0
120 14 1 0 12.280014700165612 8.434575416832018 -2.158576818190405 0 0 0
79 9 2 0 12.88699656245667 7.287622345042771 -0.9351406881310851 0 0 0
125 14 2 0 11.734822206492272 9.657444386716708 -0.9946569508522758 0 0 0
88 10 2 0 18.58912255741604 6.910826351581769 -1.00580684440822 0 0 0
129 15 1 0 18.375356226157514 8.122809315024917 -2.293123003172287 0 0 0
134 15 2 0 17.994884886903108 9.377927357419441 -1.068268399891305 0 0 0
92 11 1 0 -5.985897175269371 10.672542123027661 0.24716572787357283 0 0 0
97 11 2 0 -6.770375547714454 11.759785596116615 -0.8859166550174276 0 0 0
101 12 1 0 -0.1445203077361814 10.646172478139903 -0.18516241801293853 0 0 0
106 12 2 0 -1.0588237868637576 11.907732617091078 -1.0269749700574158 0 0 0
110 13 1 0 5.542072382365702 10.58583564788529 -0.025153938216585292 0 0 0
115 13 2 0 4.519688067282808 11.80739269678276 -0.8966535113176812 0 0 0
119 14 1 0 10.936367283816733 10.609513944890367 0.23396152273101078 0 0 0
124 14 2 0 10.26573265871507 11.733645894956485 -0.9666644117477183 0 0 0
128 15 1 0 16.960436971643453 10.598795467270847 -0.203749558201904 0 0 0
133 15 2 0 15.781763880741138 11.61697271850857 -1.114017084391975 0 0 0
138 16 1 0 -7.166451164894656 13.304149836529582 -1.7833429347608343 0 0 0
143 16 2 0 -7.798591926646867 14.694784599114108 -0.8202606958078122 0 0 0
147 17 1 0 -1.6169908119307541 13.271059946704312 -2.0688300817824548 0 0 0
152 17 2 0 -1.960760231258198 14.667668679854302 -0.9633877010578489 0 0 0
161 18 2 0 3.218523691149854 14.69845534835975 -0.7604863107885944 0 0 0
156 18 1 0 3.8659942037379773 13.248944862310275 -1.6337458176466293 0 0 0
164 19 1 0 8.50208595522928 15.441398736862876 0.010875161636108022 0 0 0
170 19 2 0 9.560183478220605 14.340410251184878 -0.9889933929666734 0 0 0
165 19 1 0 9.857480066531288 13.004060446296798 -2.1342733113607335 0 0 0
179 20 2 0 14.480843454911636 14.621456936502891 -0.8551389288958449 0 0 0
174 20 1 0 15.052980731656337 13.138362153595335 -1.7657569795463726 0 0 0
183 21 1 0 -10.429901165199144 18.18958482809169 -1.7416330446582409 0 0 0
142 16 2 0 -9.80439208297314 16.733375117317458 -0.8806513306406962 0 0 0
188 21 2 0 -10.972518279779635 19.68279525482962 -0.9357662214404063 0 0 0
192 22 1 0 -4.324228186414794 18.022492818843908 -2.162054713722306 0 0 0
151 17 2 0 -3.906170971324907 16.80822421436549 -0.9373991582413803 0 0 0
160 18 2 0 1.5494934475843793 16.457048489933335 -0.7939700317907059 0 0 0
201 23 1 0 0.8383403318949876 17.883777882105665 -1.6885412516777136 0 0 0
206 23 2 0 0.26745580528591706 19.347730572170292 -0.8281501232377408 0 0 0
169 19 2 0 7.369395398296693 16.540239542810074 -0.8712709749312413 0 0 0
210 24 1 0 6.768543479010314 18.031632449696893 -1.7003103747393915 0 0 0
219 25 1 0 12.49891348358803 17.950506885135926 -2.177233148038714 0 0 0
178 20 2 0 12.93338005794828 16.751962759786903 -0.9657237818734901 0 0 0
224 25 2 0 12.000061637495865 19.084144239897125 -0.9335649147073186 0 0 0
182 21 1 0 -11.835698580170217 20.846645779921527 0.10848900287689656 0 0 0
187 21 2 0 -12.761657787315961 21.925543319526128 -0.9946184659645201 0 0 0
191 22 1 0 -5.798075420205175 20.52965295772349 -0.20924031067988258 0 0 0
196 22 2 0 -6.7551019765012414 21.74141713762119 -1.104694793350793 0 0 0
197 22 2 0 -4.810720541510453 19.24495738122734 -0.9966989876590653 0 0 0
205 23 2 0 -1.2588209493128053 21.4422144074083 -1.056568727525691 0 0 0
200 23 1 0 -0.48648518560477516 20.51818161793699 0.2508663788818386 0 0 0
209 24 1 0 5.2859692146434325 20.800444655382183 -0.08336209742951439 0 0 0
214 24 2 0 4.329993944063195 22.046069166936068 -1.006667007769738 0 0 0
215 24 2 0 6.256045431715603 19.5238019269404 -0.8588789529632295 0 0 0
218 25 1 0 11.027583313075596 20.403308447574354 -0.1565956159708093 0 0 0
223 25 2 0 10.112448877795003 21.737843341784167 -0.9764191401889377 0 0 0
22 3 2 0 6.740565690809292 0.5640908954918853 1.010369822375917 0 0 0
19 3 1 0 8.042165505666361 0.7293120287699182 2.1976044978709774 0 0 0
31 4 2 0 12.50393998005639 0.8312224372112018 1.0696136918632906 0 0 0
40 5 2 0 18.487205414274975 0.7869425708952225 1.0629085734519523 0 0 0
37 5 1 0 19.73223739883695 0.9895069247532247 2.3041108051891586 0 0 0
4 1 2 0 23.554391994476788 0.658768496412887 1.03729493443101 -1 0 0
1 1 1 0 -3.44499128123834 0.8655696644062969 2.2102869382314703 0 0 0
6 1 2 0 -2.1244025486286073 1.0981774090143963 1.034072096999802 0 0 0
13 2 2 0 1.074021718322725 0.6069060865924176 1.0750239235367105 0 0 0
10 2 1 0 2.32106272607144 0.8237497430032978 2.290011770975748 0 0 0
11 2 1 0 5.183905329380151 0.9213042440546251 0.20298462524027894 0 0 0
15 2 2 0 3.590752463771313 1.0797328602076277 1.0845897515387626 0 0 0
24 3 2 0 9.36861204281205 0.9337662572478562 1.057995456150267 0 0 0
28 4 1 0 13.825744806070393 0.9693551272114669 2.2149184469316374 0 0 0
33 4 2 0 15.216169542351135 1.1671585743989605 1.1260732552128614 0 0 0
42 5 2 0 21.1192602651866 1.1216787864424789 1.219515815075146 0 0 0
46 6 1 0 -5.809905583076414 5.918306861516078 2.075975033033532 0 0 0
51 6 2 0 -4.3835101489075345 6.376543536691837 1.0962631853157592 0 0 0
58 7 2 0 -1.8743124785042165 5.870198799351505 1.1372780900498012 0 0 0
55 7 1 0 -0.2267373831569346 5.92593644333757 1.9348736811045582 0 0 0
60 7 2 0 1.4424510210404131 6.116624060881969 1.1390297525886428 0 0 0
64 8 1 0 5.178063439743191 5.632085535615588 2.3867952523728135 0 0 0
67 8 2 0 3.8675996574831277 5.477629198948839 1.1643517033465796 0 0 0
69 8 2 0 6.437830349976077 5.982930336981908 1.205585451108354 0 0 0
73 9 1 0 11.166437714284086 5.83651102741305 1.9009488959832215 0 0 0
76 9 2 0 9.702324707880543 5.580818282767602 0.9580457155837241 0 0 0
78 9 2 0 12.667947292555148 6.206992531065699 1.0181890116790293 0 0 0
85 10 2 0 15.305833010016741 5.831192608675239 1.0032221759045101 0 0 0
82 10 1 0 16.475122782824837 5.892664264730809 2.3341873413720817 0 0 0
87 10 2 0 17.758363953079034 6.146040544243072 1.1031518070142665 0 0 0
49 6 2 0 20.919529581840997 5.724464810447735 1.2132096545720032 -1 0 0
91 11 1 0 -8.862216617583677 10.67061269183139 2.3199827604006087 0 0 0
96 11 2 0 -7.6376078674210595 10.823663977585568 1.0417248894604763 0 0 0
103 12 2 0 -4.400079191229767 10.510715788983717 1.104278938447135 0 0 0
100 12 1 0 -2.8836474139805466 10.861971288680945 1.9815293337556659 0 0 0
105 12 2 0 -1.3411136966456105 10.998880624665023 1.098550249296789 0 0 0
109 13 1 0 2.645529827424512 10.560708445161282 1.9402797134378424 0 0 0
112 13 2 0 1.0407736570242978 10.30980841357821 1.1018094054781602 0 0 0
114 13 2 0 4.156995288882898 10.89952832579544 1.0682108826712446 0 0 0
118 14 1 0 8.149513590245117 10.767346375941962 2.3280904520796337 0 0 0
121 14 2 0 6.904918140308413 10.428662013719311 1.1019304386019857 0 0 0
123 14 2 0 9.424313558428175 10.974815502984345 1.1051409267055714 0 0 0
127 15 1 0 14.091770376298747 10.447722332102508 1.7963444767517691 0 0 0
130 15 2 0 12.47096772133261 10.21392324458407 1.0509506046299948 0 0 0
132 15 2 0 15.736124205246014 10.800455065247377 1.0064754793583295 0 0 0
94 11 2 0 18.27783867163385 10.423350275163397 0.9898806635153474 -1 0 0
136 16 1 0 -11.667019874915969 15.55879020451712 2.3001645009528513 0 0 0
137 16 1 0 -8.859664802016821 15.68159996499774 0.17444121496348686 0 0 0
148 17 2 0 -7.324681416780287 15.64962228437279 1.0470342450781165 0 0 0
145 17 1 0 -5.893525492816776 15.827184909326203 2.080063048269838 0 0 0
146 17 1 0 -2.942421582151808 15.715260390520438 0.09706635359308224 0 0 0
157 18 2 0 -1.6606409738119856 15.400674933949801 1.302092586762384 0 0 0
154 18 1 0 -0.4189760793520021 15.629416582761433 2.564951628644061 0 0 0
155 18 1 0 2.459911867892143 15.664985063170779 0.5281280895472396 0 0 0
159 18 2 0 0.7865265185762178 15.88772387396294 1.2681750069780096 0 0 0
163 19 1 0 5.647458447427495 15.416622706979314 2.1134199582319573 0 0 0
166 19 2 0 4.05711161162096 15.320200918418983 1.2617760877827626 0 0 0
168 19 2 0 7.245538092030782 15.525622190912589 1.2945679430753905 0 0 0
172 20 1 0 10.997720417731404 15.694505540560296 2.4918385079595247 0 0 0
175 20 2 0 9.814445752610542 15.311938257096276 1.1959559123366321 0 0 0
173 20 1 0 13.731853100517771 15.744832616398604 0.24737812686092298 0 0 0
177 20 2 0 12.216770783207846 16.03550758426681 1.207982328258605 0 0 0
139 16 2 0 15.219199201408053 15.451647670298321 1.2245433448936964 -1 0 0
141 16 2 0 -10.38827874536089 15.73412814250512 1.0777498659727027 0 0 0
150 17 2 0 -4.299637866770545 15.9574259352686 1.2303638569760857 0 0 0
181 21 1 0 -14.652037916545545 20.5095534375332 2.1932547167317455 0 0 0
186 21 2 0 -13.414246822266989 20.933693068962622 1.0155291581005308 0 0 0
190 22 1 0 -8.720490715668163 20.775954148435613 1.7909239107265646 0 0 0
193 22 2 0 -10.315967964120457 20.61584936015203 1.0054657115306056 0 0 0
195 22 2 0 -7.130667486567551 20.924701575694275 0.9032701794728939 0 0 0
202 23 2 0 -4.655005703091619 20.32431476242657 1.1146065414044601 0 0 0
199 23 1 0 -3.3507675112798347 20.587941861397056 2.2911922699671647 0 0 0
204 23 2 0 -2.0449637446618167 20.79557245454088 1.1152238216394887 0 0 0
208 24 1 0 2.512166413948452 20.57399491710024 2.084066527183615 0 0 0
211 24 2 0 0.9806424229622914 20.2587370086719 1.2084362162597913 0 0 0
213 24 2 0 4.001895320426088 20.97680408739495 1.1516020764774781 0 0 0
217 25 1 0 8.152818739668565 20.638982903929396 1.9344482368833118 0 0 0
220 25 2 0 6.4830841746389 20.54259102413432 1.1626860477039886 0 0 0
222 25 2 0 9.74861248743213 20.733492122543794 1.064991304237132 0 0 0
184 21 2 0 12.314848601100234 20.1073097347031 1.0402765120678414 -1 0 0
45 5 2 0 23.867400876596594 -0.37482462944110906 3.132154213429855 0 0 0
9 1 2 0 1.2652249300253544 -0.29604542729972305 3.286576799656417 0 0 0
228 26 1 0 0.7753062739886301 -1.5804941246283797 4.3908833082377745 0 0 0
233 26 2 0 0.0591027223938978 -0.07931656822980448 5.1884141863399105 0 0 0
18 2 2 0 7.0407668642684085 -0.5635543827229972 3.0484520407070343 0 0 0
242 27 2 0 6.226948327603082 -0.20765060591587758 5.309315078889496 0 0 0
237 27 1 0 6.626366182972675 -1.6789126316169742 4.364853267345628 0 0 0
27 3 2 0 12.906873092284307 -0.2583576225750295 3.1448311967966385 0 0 0
246 28 1 0 12.411395497381658 -1.5054688307912079 4.305550725757297 0 0 0
251 28 2 0 11.905998346667268 -0.03937622818709885 5.203766101956442 0 0 0
36 4 2 0 18.677711585498685 -0.10467517213014554 3.254289486330239 0 0 0
255 29 1 0 18.06630367784303 -1.506710503704209 4.181520563659508 0 0 0
260 29 2 0 17.619054855249033 -0.12534113171351713 5.23570470846669 0 0 0
264 30 1 0 23.620402705296197 -1.6304945885048292 4.334021510248035 0 0 0
269 30 2 0 23.247010329705347 -0.21798675280749613 5.368589601365079 0 0 0
5 1 2 0 -2.3837978790026404 2.060010599560729 3.039324160878345 0 0 0
232 26 2 0 -1.4132693107626877 2.0877135371424336 4.994001547914198 0 0 0
273 31 1 0 -1.749444065225895 3.4427038184400702 3.9017189343765937 0 0 0
14 2 2 0 3.3468127801166947 2.0082206492182584 3.2131872745220216 0 0 0
241 27 2 0 4.478455189199216 1.6871040375535444 5.2757514253671225 0 0 0
282 32 1 0 3.8346395824408583 3.148092349192196 4.458422722241024 0 0 0
23 3 2 0 8.956147107793203 2.0207710776293064 3.0636750116334266 0 0 0
250 28 2 0 9.878764913397863 2.301790351812638 5.19934691825211 0 0 0
291 33 1 0 9.500331089438298 3.490030675455899 3.9424530842107313 0 0 0
32 4 2 0 14.763534054997507 2.176963054869666 3.2203489644103733 0 0 0
300 34 1 0 15.312636702796471 3.3027379630611744 4.485229250355624 0 0 0
259 29 2 0 15.893210108095754 1.7628978740827201 5.220058752046418 0 0 0
41 5 2 0 20.66271052390823 2.2588318863710324 3.1917381270923357 0 0 0
268 30 2 0 21.341248806764508 2.223147858077147 5.383835269123377 0 0 0
309 35 1 0 21.00272122661141 3.596812611418314 4.296488107028081 0 0 0
50 6 2 0 -4.976435480536679 6.88992843716617 3.2726351639507154 0 0 0
54 6 2 0 -1.1216994317575306 4.898405009268735 3.0741002021187827 0 0 0
278 31 2 0 -1.9633981163500431 4.613218217029022 5.222287521090431 0 0 0
59 7 2 0 0.6701157522372139 6.77344123420701 3.220548938059842 0 0 0
63 7 2 0 4.250962784302561 4.329449655540257 3.217217687581676 0 0 0
287 32 2 0 3.394920816240317 4.608100355265657 5.421308494517916 0 0 0
68 8 2 0 6.143246556602718 6.827427360526715 3.2973415691214125 0 0 0
72 8 2 0 10.234345870586136 4.927592588574229 3.087690678197002 0 0 0
296 33 2 0 9.203408393001421 4.700634979016377 5.223955141433284 0 0 0
77 9 2 0 12.076073129782078 6.706713352122359 3.152821032636618 0 0 0
304 34 2 0 13.227202124585638 6.887146963574312 5.239099807356399 0 0 0
81 9 2 0 15.745598396751241 4.576869488932001 3.311450608122274 0 0 0
305 34 2 0 14.858554023268631 4.816374442364817 5.374660663801052 0 0 0
86 10 2 0 17.553532003883173 6.899268783327014 3.350522998393294 0 0 0
90 10 2 0 -6.6171361008601455 4.849108174263422 3.239823858643746 1 0 0
314 35 2 0 20.27604367321269 4.919357246339613 5.2214606834043495 0 0 0
135 15 2 0 18.303095726447424 9.50870888251324 3.1642542426070692 0 0 0
99 11 2 0 -3.7447380694582915 9.894463595676228 3.18969005404744 0 0 0
318 36 1 0 -4.350317196442683 8.40251946330265 4.030945535775217 0 0 0
277 31 2 0 -3.866047880572431 7.225513809692958 5.238975104717461 0 0 0
323 36 2 0 -4.786641656853314 9.691859627583892 5.167322027143975 0 0 0
108 12 2 0 1.7740102215099727 9.711558373310666 3.236418768601003 0 0 0
286 32 2 0 1.5391500831222293 7.071502912665481 5.415543662090796 0 0 0
327 37 1 0 1.1280006780885206 8.260504563297381 4.155104460060565 0 0 0
332 37 2 0 0.6027603989840973 9.49547527414735 5.3068810467800125 0 0 0
117 13 2 0 7.134678020255964 9.646618115048298 3.232154814036753 0 0 0
295 33 2 0 7.092693171446743 6.977567425034672 5.433375461041553 0 0 0
336 38 1 0 6.599810644339214 8.244826014751112 4.24296487769023 0 0 0
341 38 2 0 6.089082633761929 9.510475654135664 5.371609139220112 0 0 0
126 14 2 0 13.331236006970833 9.535775632877247 3.107667565529658 0 0 0
345 39 1 0 12.75509938935879 8.140771308626828 4.05678607840725 0 0 0
350 39 2 0 12.375431004707725 9.398931691233663 5.254019587529202 0 0 0
313 35 2 0 18.77361072526361 6.888437984730811 5.305795177293129 0 0 0
354 40 1 0 18.007717554154112 8.269982709491227 4.424006462568357 0 0 0
359 40 2 0 17.297621877716107 9.717054548323606 5.254628224247414 0 0 0
95 11 2 0 -7.783981195652927 11.827083776378863 3.1937443500614693 0 0 0
322 36 2 0 -6.821214856195438 12.115071574578941 5.229667232639139 0 0 0
104 12 2 0 -2.1232101528259752 11.95051483591553 3.163228502597054 0 0 0
331 37 2 0 -1.243222765355661 11.601132636099322 5.311270378400167 0 0 0
372 42 1 0 -1.9077821683555092 13.09501241974477 4.530691582004479 0 0 0
113 13 2 0 3.5040509500480015 11.469139692716386 3.2143989744074704 0 0 0
340 38 2 0 4.587124981794292 11.655631608523812 5.370427476466675 0 0 0
122 14 2 0 9.162224480692128 11.939840378218449 3.2317131457450206 0 0 0
349 39 2 0 10.188345437280319 11.638311897561763 5.262888082224692 0 0 0
390 44 1 0 9.583395469041577 13.135396599317385 4.498969892466226 0 0 0
131 15 2 0 14.78585438232582 11.40372110962156 3.1252947238236066 0 0 0
358 40 2 0 15.620097455035136 11.573315947413867 5.318575294791381 0 0 0
144 16 2 0 -6.867955389009381 14.874226534449203 3.199628735069407 0 0 0
363 41 1 0 -7.354734560149852 13.358079561589772 4.040344033387727 0 0 0
368 41 2 0 -7.770453591454285 14.568207801811983 5.260977243621384 0 0 0
153 17 2 0 -1.3975969879566028 14.301231575176455 3.391827236079778 0 0 0
377 42 2 0 -2.5178979879985066 14.590476423785177 5.364121302166616 0 0 0
162 18 2 0 4.709149902970723 14.276324806823233 3.1386583324286326 0 0 0
386 43 2 0 3.766455623379719 14.184831066922253 5.286051520568968 0 0 0
381 43 1 0 4.139188911859573 12.870381088448593 4.100633908305311 0 0 0
171 19 2 0 10.141779678727488 14.382814836325888 3.3368995287384324 0 0 0
395 44 2 0 8.868020131285896 14.555814362716884 5.344450207364196 0 0 0
180 20 2 0 15.704004646994658 14.23190865414919 3.1185504522452403 0 0 0
399 45 1 0 15.312433945423898 12.81956847629938 4.088401074104857 0 0 0
404 45 2 0 14.9390053378944 14.094604594081446 5.253380942668703 0 0 0
140 16 2 0 -10.595475056746633 16.78685191674499 3.0682199176186744 0 0 0
408 46 1 0 -10.08844028898357 18.315010376547825 3.89342679741822 0 0 0
367 41 2 0 -9.694461836322006 17.178722378403325 5.187200241730247 0 0 0
149 17 2 0 -5.0559437033260215 16.999659499051955 3.166079929381655 0 0 0
417 47 1 0 -4.639650115597033 18.123688079772847 4.460611343916611 0 0 0
376 42 2 0 -3.997776130974878 16.687394518755774 5.380311903727856 0 0 0
158 18 2 0 0.597182929067297 16.91837555516186 3.2849145340818646 0 0 0
385 43 2 0 1.7606039258998996 16.68687902292093 5.1892089426848305 0 0 0
426 48 1 0 1.165749522920712 18.19532091650786 4.373953799653504 0 0 0
167 19 2 0 6.580762471696265 16.624541049628974 3.1044817027319 0 0 0
394 44 2 0 7.325506660573875 16.938149867605993 5.345551060853439 0 0 0
435 49 1 0 6.917441706329645 18.09305331719169 4.055594108692429 0 0 0
176 20 2 0 11.945088637188995 16.947969191322123 3.3693263207738804 0 0 0
444 50 1 0 12.386422964557426 18.204163394936312 4.531612639149882 0 0 0
403 45 2 0 13.026933807109646 16.705450123837196 5.294567717271142 0 0 0
449 50 2 0 11.727434888326155 19.64380282469738 5.387747750788709 0 0 0
185 21 2 0 -13.79086227460055 21.58055618533192 3.2866383714963954 0 0 0
412 46 2 0 -12.66700890051738 21.565628140322442 5.359543124069745 0 0 0
189 21 2 0 -9.520952842922583 19.786614078115054 3.0089479805679176 0 0 0
413 46 2 0 -10.548225374028013 19.3953652119804 5.239236300722356 0 0 0
194 22 2 0 -7.8288281958198 21.67912486360797 3.052594547500756 0 0 0
421 47 2 0 -7.02269105660445 21.399705840316223 5.357073020345174 0 0 0
198 22 2 0 -4.210245104005716 19.385005604203023 3.311904857414504 0 0 0
422 47 2 0 -5.261538927287419 19.448764812072177 5.464945512903062 0 0 0
203 23 2 0 -2.349082349816581 21.716435460360035 3.219132002490217 0 0 0
430 48 2 0 -1.1571529854335454 21.5245474556435 5.166035255246228 0 0 0
207 23 2 0 1.7255295024807387 19.492879846250293 3.2447995054526375 0 0 0
431 48 2 0 0.5728065289319302 19.661322109020265 5.256167624115107 0 0 0
212 24 2 0 3.3439847896896824 21.581321797018816 3.283100005313817 0 0 0
439 49 2 0 4.337454330428904 21.752254621329257 5.393878468393934 0 0 0
216 24 2 0 7.300818802121593 19.55440191490742 3.0963917330488293 0 0 0
440 49 2 0 6.471399143497092 19.27340085629639 5.2923888443849965 0 0 0
221 25 2 0 9.073141710668203 21.669402668600778 3.0670589068428287 0 0 0
448 50 2 0 10.089139168978221 21.47616867154345 5.2914084759436095 0 0 0
225 25 2 0 12.758087283951436 19.376912118405503 3.2507126289913995 0 0 0
238 27 2 0 0.6457410900204694 0.590972495806056 7.325862804626894 0 0 0
245 28 1 0 10.813382882103205 1.0438505011280115 6.106934120573172 0 0 0
256 29 2 0 12.05184774292999 0.800473099705608 7.365714630230453 0 0 0
265 30 2 0 18.30982670917296 0.5255872983658261 7.34251978213479 0 0 0
263 30 1 0 22.288004341228177 1.003985197233154 6.292983067176669 0 0 0
229 26 2 0 23.684743598939516 0.8456189061936574 7.413464669731363 -1 0 0
226 26 1 0 -3.337576352931583 1.0096861092578164 8.644609115598527 0 0 0
231 26 2 0 -2.1380250560872667 1.3296444845111548 7.380083971535235 0 0 0
227 26 1 0 -0.736887796874435 1.0196266314571285 6.265378502780358 0 0 0
235 27 1 0 2.2199617084985395 0.7879963071153391 8.159181035282172 0 0 0
236 27 1 0 5.383250988020602 0.7899593386141426 6.548282763535179 0 0 0
240 27 2 0 3.8013455270585057 1.0402042827491402 7.365295683693114 0 0 0
247 28 2 0 7.01447482986915 0.7439627920024168 7.307160012583701 0 0 0
244 28 1 0 8.26084968978186 1.0343344592565162 8.527130235225377 0 0 0
249 28 2 0 9.477295330159645 1.1854430946146133 7.219725700249109 0 0 0
253 29 1 0 13.629812816546249 0.8323702039133662 8.198917409214372 0 0 0
258 29 2 0 15.16482368949746 1.0263921168844772 7.334416673495863 0 0 0
254 29 1 0 16.710975017969098 0.7725080747055486 6.488818310494025 0 0 0
262 30 1 0 19.58131195176184 0.7633240216772172 8.552915293217739 0 0 0
267 30 2 0 20.908394786024754 1.0652785646354728 7.409440597255685 0 0 0
271 31 1 0 -5.6603947139953075 5.959771551090893 8.232543311337558 0 0 0
276 31 2 0 -4.085405537387461 6.302893881853977 7.34693158429895 0 0 0
272 31 1 0 -2.8936680513951503 5.947197118199257 6.074071336738752 0 0 0
283 32 2 0 -1.7227134035387044 5.707112611648051 7.395405004995501 0 0 0
280 32 1 0 -0.3580259485563566 5.876411262648625 8.538742937620482 0 0 0
281 32 1 0 2.4537293990137163 5.8171244000782485 6.334719004791699 0 0 0
285 32 2 0 1.0661881014584038 6.012092601829658 7.4776175309498445 0 0 0
292 33 2 0 3.740101042894798 5.444880793571463 7.4929569157261025 0 0 0
289 33 1 0 5.342548526443495 5.645872305511548 8.316162967810275 0 0 0
290 33 1 0 8.207625510224528 5.79910978852416 6.248750245181512 0 0 0
294 33 2 0 6.9216689817592565 5.895211146390454 7.449721435118853 0 0 0
301 34 2 0 9.517985148664838 5.6188650915197895 7.425595055991838 0 0 0
298 34 1 0 11.085340123930468 5.842773000494 8.325369059828963 0 0 0
299 34 1 0 14.092399229420224 5.9569245050901225 6.484729706438969 0 0 0
303 34 2 0 12.620934636749311 6.171436198686229 7.457650591050204 0 0 0
310 35 2 0 15.648131826632437 5.797078759536819 7.341623910056541 0 0 0
307 35 1 0 16.806905716690544 6.061030138437087 8.699728958096204 0 0 0
312 35 2 0 18.063229747688304 6.245634170033356 7.450386673501848 0 0 0
308 35 1 0 19.562948394899188 5.894365781488216 6.521326259667077 0 0 0
274 31 2 0 21.09822860154769 5.516969292991525 7.392664996042749 -1 0 0
316 36 1 0 -8.756092164845239 10.698806904750214 8.18612465814222 0 0 0
321 36 2 0 -7.196033864396827 11.103082182909155 7.287270626649718 0 0 0
317 36 1 0 -5.877957363323827 10.795073859172579 6.127470670107801 0 0 0
328 37 2 0 -4.7222233461590255 10.368265725978329 7.407015875331364 0 0 0
325 37 1 0 -3.2044255124666234 10.486014653684457 8.395227554259918 0 0 0
330 37 2 0 -1.8474483292800654 10.755631200468358 7.274371313965368 0 0 0
326 37 1 0 -0.2812706565928229 10.610300339091761 6.428704241160672 0 0 0
337 38 2 0 1.2848897325017195 10.523910367244113 7.285733072122637 0 0 0
334 38 1 0 2.4436454198545476 10.816681477726263 8.601964810882134 0 0 0
335 38 1 0 5.333774326770468 10.575362824912268 6.563707525351557 0 0 0
339 38 2 0 3.771223339095796 10.927900858318825 7.427064359143628 0 0 0
346 39 2 0 6.900647054462378 10.20106998499827 7.309565334455426 0 0 0
343 39 1 0 8.423671292472289 10.467823780091766 8.234139946813421 0 0 0
344 39 1 0 11.269265560355322 10.531420631394365 6.151912011776153 0 0 0
348 39 2 0 9.960437404420205 10.711999440461788 7.323477006265392 0 0 0
355 40 2 0 12.379302940866246 10.259716086880996 7.517872250959499 0 0 0
352 40 1 0 13.70389408908595 10.542324442026729 8.710309220395834 0 0 0
357 40 2 0 14.912248222260356 10.824120510351033 7.444015255794705 0 0 0
353 40 1 0 16.447285571596893 10.597046779581202 6.539734743698499 0 0 0
319 36 2 0 18.014998665367756 10.250966374553538 7.337100372688784 -1 0 0
361 41 1 0 -11.508312679933688 15.622744116570864 8.222135094559313 0 0 0
366 41 2 0 -10.039759222435656 16.00868445147563 7.304920444307193 0 0 0
362 41 1 0 -8.760022511884667 15.88245770919146 6.05661606389347 0 0 0
373 42 2 0 -7.522656620332456 15.730777981407503 7.326518963797952 0 0 0
370 42 1 0 -6.172548663806743 15.926757930278843 8.45781946050163 0 0 0
375 42 2 0 -4.8159731922158775 15.99824686546598 7.316958906204675 0 0 0
371 42 1 0 -3.1791301239763454 15.717369216550814 6.562309845731885 0 0 0
382 43 2 0 -1.6218396494601697 15.25781708314048 7.328795896641633 0 0 0
379 43 1 0 -0.047139987283572715 15.45365210478159 8.232386551187973 0 0 0
384 43 2 0 1.5158662888405194 15.663188654436453 7.334350378707754 0 0 0
380 43 1 0 2.7115803213106764 15.466883790112096 6.04384697826117 0 0 0
391 44 2 0 4.0502125073686885 15.334414878397077 7.2087232553168885 0 0 0
388 44 1 0 5.211227064224047 15.677731654223486 8.526912364977385 0 0 0
393 44 2 0 6.475158006644096 15.87561739233287 7.293347745888937 0 0 0
389 44 1 0 8.068565802034666 15.702052579466574 6.441487377279984 0 0 0
400 45 2 0 9.539526219929723 15.335476859625292 7.3712300223350855 0 0 0
397 45 1 0 11.147835984012808 15.551219949708532 8.133562958422482 0 0 0
402 45 2 0 12.68004115026945 15.690707078604333 7.251511234525587 0 0 0
398 45 1 0 14.019667166826242 15.406482698351276 6.07133724753797 0 0 0
364 41 2 0 15.208787876571407 15.152222293349165 7.3918426692865165 -1 0 0
406 46 1 0 -14.309951327978382 20.620953748198424 8.395445883702104 0 0 0
407 46 1 0 -11.547909171421583 20.465339423367375 6.236180888949681 0 0 0
411 46 2 0 -12.739639023738732 20.7579027686663 7.512697024143849 0 0 0
418 47 2 0 -10.26480352891118 20.18560508219247 7.421938684897182 0 0 0
415 47 1 0 -8.988096923721216 20.350921160792794 8.641806042089613 0 0 0
420 47 2 0 -7.727655959097599 20.692706706377155 7.453816837224959 0 0 0
416 47 1 0 -6.1113442034431715 20.515270353363444 6.620551780420872 0 0 0
427 48 2 0 -4.418250101909913 20.378788877227382 7.333759163899316 0 0 0
424 48 1 0 -3.184171175351799 20.691234855550064 8.562621457343491 0 0 0
429 48 2 0 -1.8292079458517359 20.77790311969564 7.402920342585734 0 0 0
425 48 1 0 -0.30991642542680164 20.608604388200803 6.449419357521478 0 0 0
436 49 2 0 1.1335783165000732 20.30025776667592 7.427996078368649 0 0 0
433 49 1 0 2.7174465396260965 20.464937209230197 8.270416657377348 0 0 0
434 49 1 0 5.499082031075607 20.55031144317217 6.1357710942603045 0 0 0
438 49 2 0 4.295046805635953 20.767903570543783 7.427030240435524 0 0 0
445 50 2 0 6.763970146941317 20.330990586069337 7.344995572527909 0 0 0
442 50 1 0 7.995387473228258 20.788362614284264 8.544408280662228 0 0 0
443 50 1 0 10.943043951570065 20.64394082447348 6.607576079996889 0 0 0
447 50 2 0 9.377370663067783 21.021904680126923 7.46547305717333 0 0 0
409 46 2 0 12.508653395155068 20.296328515472485 7.440017340326381 -1 0 0
234 26 2 0 1.3509712365146296 -0.08620077579229335 9.457868957099514 0 0 0
453 51 1 0 0.9366848773665875 -1.3600930624487486 10.659298856534974 0 0 0
243 27 2 0 7.282813358759486 -0.04792844264721685 9.526516314442123 0 0 0
462 52 1 0 6.71265676735518 -1.4942578882948008 10.43904593518096 0 0 0
471 53 1 0 12.429858166723548 -1.373704661580542 10.658065955215859 0 0 0
252 28 2 0 12.724401433445198 -0.09436717459089206 9.41487423056214 0 0 0
261 29 2 0 18.582151405971363 -0.5152590729956015 9.371798025762237 0 0 0
480 54 1 0 17.968787271349523 -1.6100098790599777 10.590832107161896 0 0 0
270 30 2 0 23.8799941951816 -0.217050132355888 9.49425538821452 0 0 0
489 55 1 0 23.586073244753194 -1.4028849377960708 10.765096154957837 0 0 0
230 26 2 0 -2.241306220460246 2.1514723738579278 9.505291408755555 0 0 0
498 56 1 0 -1.7743855937894288 3.45224401116248 10.637823696328974 0 0 0
239 27 2 0 3.1491804380047146 1.6024905470677648 9.427774701610344 0 0 0
507 57 1 0 3.8496753660630674 3.0999830931400583 10.247783028580262 0 0 0
466 52 2 0 4.284008386110183 1.8440160131281074 11.448133907247872 0 0 0
248 28 2 0 9.281247813384702 2.245928809596349 9.32156477034173 0 0 0
516 58 1 0 9.819063845432524 3.435622317510993 10.567497559379799 0 0 0
257 29 2 0 14.469882347205587 1.8387947306933112 9.386685391138123 0 0 0
525 59 1 0 14.995186379076902 3.428884600905617 10.199369056101762 0 0 0
266 30 2 0 20.640620554444638 1.9285416643528572 9.426890790399383 0 0 0
534 60 1 0 21.273645755777373 3.399796889924482 10.225673095446787 0 0 0
275 31 2 0 -4.87953910915172 6.954332584147914 9.48364837117085 0 0 0
279 31 2 0 -1.3648181207882315 4.630721671715707 9.426784045971251 0 0 0
284 32 2 0 0.5525800404364034 7.158673206782937 9.410675511549623 0 0 0
511 57 2 0 1.4072181423007866 6.800093960975873 11.467955195796367 0 0 0
288 32 2 0 4.448056100455777 4.641203903352581 9.48611079130622 0 0 0
512 57 2 0 3.3657850219720293 4.257999052528463 11.492003945541718 0 0 0
293 33 2 0 6.172757969770205 6.601376148935345 9.565300481335358 0 0 0
297 33 2 0 10.18401449792001 4.609440420210697 9.315231562184348 0 0 0
302 34 2 0 11.90095063864495 6.789787035923653 9.619020730299882 0 0 0
306 34 2 0 15.63450521145484 4.9550591366517915 9.498943987291558 0 0 0
311 35 2 0 17.86139516657336 7.360232070883414 9.442496788649454 0 0 0
315 35 2 0 -6.400100669472724 4.935556615098462 9.472746261070338 1 0 0
543 61 1 0 -4.487810356322046 8.208876599870507 10.764725220944175 0 0 0
324 36 2 0 -4.0772187265919575 9.487638654192821 9.579961355219815 0 0 0
552 62 1 0 0.9862687343810883 8.344324499890647 10.648610571467648 0 0 0
333 37 2 0 1.4343128870300292 9.545313239072584 9.426916137825616 0 0 0
557 62 2 0 0.45799428063576464 9.803036884700642 11.552103857982736 0 0 0
561 63 1 0 6.879420515515249 8.072681699325486 10.362656686031608 0 0 0
342 38 2 0 7.532827535660007 9.534587620196081 9.453822608213219 0 0 0
570 64 1 0 12.365149653536779 8.022802428360713 10.768373048154809 0 0 0
351 39 2 0 12.797307688853415 9.191294588701439 9.49506896924345 0 0 0
579 65 1 0 18.29102457692742 8.546031849577993 10.719832257641093 0 0 0
360 40 2 0 -9.492734689515302 9.739705630465302 9.45834923194205 1 0 0
320 36 2 0 -8.061750121311153 11.825269227817145 9.379025823552297 0 0 0
329 37 2 0 -2.284077395763081 11.520189228004195 9.470024236427584 0 0 0
338 38 2 0 3.4188393728507345 12.038075811332178 9.463221159212168 0 0 0
347 39 2 0 9.2006330833599 11.540683466592789 9.390282229025916 0 0 0
356 40 2 0 14.765399899433213 11.71638316197366 9.565353857741464 0 0 0
405 45 2 0 -12.276348547487768 14.701989116230216 9.52774652965269 1 0 0
588 66 1 0 -7.705396349311715 13.333822139652781 10.307473423246986 0 0 0
369 41 2 0 -7.2144938964140275 14.77463672088502 9.36815892666779 0 0 0
378 42 2 0 -0.9288909129633387 14.441186282866752 9.410415204822414 0 0 0
597 67 1 0 -1.5728179750297384 12.97548246388181 10.264934865846172 0 0 0
602 67 2 0 -1.880408866491238 14.260399339056608 11.445939898677654 0 0 0
387 43 2 0 4.259093911175451 14.478432142842266 9.454443716946862 0 0 0
606 68 1 0 3.8472258183114745 13.272773824609288 10.695655495100132 0 0 0
396 44 2 0 10.354960906216647 14.616644116559502 9.404828876963409 0 0 0
615 69 1 0 9.6451101745041 13.133446987194102 10.19987725922436 0 0 0
624 70 1 0 15.319152882557027 13.220115780563408 10.334179641363534 0 0 0
365 41 2 0 -10.804391988097482 16.751217931066286 9.416833299975586 0 0 0
633 71 1 0 -10.413402692776565 17.873347878309694 10.704185072382852 0 0 0
374 42 2 0 -5.067151373801029 17.077267587616014 9.33785351240374 0 0 0
642 72 1 0 -4.608165297468873 18.208175718104464 10.622797475398215 0 0 0
383 43 2 0 0.7243304919068096 16.330749567614863 9.563351238354032 0 0 0
651 73 1 0 1.3319604344307612 17.9106552798118 10.292220508474513 0 0 0
610 68 2 0 1.63708532681403 16.777917532301 11.614551433311986 0 0 0
392 44 2 0 6.157146207489284 16.97975124892265 9.338159741818352 0 0 0
660 74 1 0 6.696325139453623 18.18692960284777 10.496511842823647 0 0 0
401 45 2 0 12.048642229175833 16.394731238092564 9.408568576385942 0 0 0
669 75 1 0 12.709180060492926 17.85630828388081 10.260640114890744 0 0 0
450 50 2 0 -15.1252716545203 19.388509277199326 9.44843870605398 1 0 0
410 46 2 0 -13.444728334982656 21.983187369551498 9.323316228280753 0 0 0
414 46 2 0 -10.026683636634939 18.99612732622436 9.380848301424706 0 0 0
419 47 2 0 -7.975342695620033 21.605872660932548 9.472172095209967 0 0 0
423 47 2 0 -4.135323804101051 19.38750217001099 9.379169224193191 0 0 0
428 48 2 0 -2.1648473438403952 21.955343982368746 9.34979816621097 0 0 0
432 48 2 0 1.9127164392942193 19.39154026421041 9.420682128917216 0 0 0
656 73 2 0 0.924163106700985 19.180427445055894 11.420421068350944 0 0 0
437 49 2 0 3.4834764091663883 21.59704318606579 9.406561279468088 0 0 0
441 49 2 0 7.093093066558386 19.446612453073335 9.35854798823298 0 0 0
446 50 2 0 8.987859055771029 21.96100964148595 9.46485820571292 0 0 0
458 51 2 0 0.4809095512387742 0.09718587906265164 11.592526928272635 0 0 0
463 52 2 0 1.19790536482705 0.8188265506319734 13.739403316502981 0 0 0
467 52 2 0 6.096100507999094 -0.10487979732449482 11.423674717726007 0 0 0
476 53 2 0 11.96156499197657 0.11817503668682683 11.584356526489369 0 0 0
481 54 2 0 12.80183441678594 0.91461810131455 13.65310578641713 0 0 0
485 54 2 0 17.573066743361228 -0.1327178467615835 11.49581310757847 0 0 0
490 55 2 0 17.79278802038216 0.914292813844344 13.567442511878086 0 0 0
494 55 2 0 22.967908924792987 0.10163811180723803 11.53590790065661 0 0 0
454 51 2 0 23.801271849027597 0.7700568953444318 13.667450027137383 -1 0 0
456 51 2 0 -1.9605281009182127 1.2528967138498852 13.534087452914223 0 0 0
452 51 1 0 -0.3258532609324476 1.115513940932304 12.806985669139948 0 0 0
457 51 2 0 -1.1839718578304246 2.0651157409420042 11.563066795210299 0 0 0
461 52 1 0 5.1426655565541735 0.8197147594490315 12.597661909825948 0 0 0
465 52 2 0 3.7560487344006397 1.176344994804475 13.662852470624925 0 0 0
472 53 2 0 6.5169670212885515 0.6443166962083606 13.687487001116724 0 0 0
470 53 1 0 11.198277276087971 1.1265132986195026 12.826469075452339 0 0 0
474 53 2 0 9.598927857732267 1.2774086481579676 13.626562240685951 0 0 0
475 53 2 0 10.374759166081756 1.9988274811364528 11.483610454746476 0 0 0
483 54 2 0 15.305392043449672 1.3169473972241414 13.597797556696138 0 0 0
479 54 1 0 16.528459239157964 1.0937590733205997 12.333057483867723 0 0 0
484 54 2 0 15.420727503926589 2.1921581421392675 11.424652537410566 0 0 0
492 55 2 0 20.673336760142565 1.5406445338193104 13.521662701277835 0 0 0
488 55 1 0 22.274824589668732 1.1634132442167644 12.775767017414887 0 0 0
493 55 2 0 21.515932058495547 2.154724719014295 11.510467877575485 0 0 0
501 56 2 0 -4.870892741572794 5.9140563470490415 13.703059140690334 0 0 0
497 56 1 0 -3.2636849103547054 5.69937916899954 12.868065872319903 0 0 0
503 56 2 0 -2.3418965438570165 4.836169894708841 11.629449014126005 0 0 0
508 57 2 0 -1.7094906369144018 5.5067702879971465 13.672295767080586 0 0 0
506 57 1 0 2.3631617518941583 5.537160349124786 12.335864978541306 0 0 0
510 57 2 0 1.109412381565253 5.82877746128582 13.539561824468526 0 0 0
517 58 2 0 3.6220895459948217 5.207676617874714 13.52807027865209 0 0 0
515 58 1 0 8.272524788009314 5.797986113006364 12.68683009550727 0 0 0
519 58 2 0 6.745913677146194 6.016037056154249 13.585561354362708 0 0 0
520 58 2 0 7.4438000309292205 6.8322692030839045 11.483118734744375 0 0 0
521 58 2 0 9.190065592133564 4.8177815173437155 11.509908946164716 0 0 0
526 59 2 0 9.697756136221543 5.427372862189328 13.696430395936753 0 0 0
524 59 1 0 13.774577280387586 5.52039976001816 12.797464239809335 0 0 0
528 59 2 0 12.236774397194392 5.914516770213152 13.646109316981777 0 0 0
530 59 2 0 14.522009033763794 4.553110510911067 11.483230790699578 0 0 0
535 60 2 0 15.342584498022479 5.17919979343069 13.618385095562799 0 0 0
537 60 2 0 18.49201199052024 5.932024937672108 13.602398761247452 0 0 0
533 60 1 0 19.785453243539337 5.781310866506164 12.384424602554295 0 0 0
539 60 2 0 20.811454226189653 4.624468035180684 11.438891570414878 0 0 0
499 56 2 0 21.012234351940588 5.511768302343889 13.615171275476557 -1 0 0
502 56 2 0 -3.994081419113925 6.662325596652107 11.535240419054588 0 0 0
548 61 2 0 -5.1796905092848915 9.670104244951194 11.574043707676605 0 0 0
566 63 2 0 6.618651725336085 9.393079686043151 11.491155932506043 0 0 0
529 59 2 0 13.024126442318515 6.479969132361792 11.499254372649089 0 0 0
575 64 2 0 11.869368792420513 9.534518823184264 11.59780294422291 0 0 0
538 60 2 0 18.77433205089964 7.048738064484735 11.591287564296318 0 0 0
584 65 2 0 17.720203776358517 10.075128619256645 11.490887149760288 0 0 0
546 61 2 0 -7.447344314869912 11.11773884329876 13.634333883815055 0 0 0
542 61 1 0 -6.1926089088350285 10.8875419467063 12.373787594172127 0 0 0
547 61 2 0 -7.216548268004241 12.16817461553877 11.58265251684724 0 0 0
553 62 2 0 -4.900864475067692 10.743029643054946 13.585222293198497 0 0 0
555 62 2 0 -1.8062689588135736 11.3246951325911 13.643321225802085 0 0 0
551 62 1 0 -0.2968576664083198 10.827994904275673 12.781280265322373 0 0 0
556 62 2 0 -1.1914557903733103 11.72802853894856 11.522936985560184 0 0 0
562 63 2 0 1.3055395933804954 10.497851998701641 13.537422318336313 0 0 0
559 63 1 0 2.7807081023774405 10.655902222377819 14.498669482905667 0 0 0
560 63 1 0 5.551624685397898 10.659546418390708 12.32042323857401 0 0 0
564 63 2 0 4.294509907347042 10.817552105790618 13.54786617183496 0 0 0
565 63 2 0 4.4264791655040865 11.827752084779863 11.548129187852888 0 0 0
571 64 2 0 6.878111992996698 10.458644553669192 13.50664315433332 0 0 0
569 64 1 0 10.799764896510919 10.702381481021352 12.451139140646433 0 0 0
573 64 2 0 9.418102056822036 10.924784481130256 13.544466502708756 0 0 0
574 64 2 0 9.771891366798027 11.8896264537575 11.4783212283114 0 0 0
580 65 2 0 12.169994047073079 10.667073682516158 13.592748637134482 0 0 0
582 65 2 0 15.266714194377734 11.2975659541071 13.504011968995096 0 0 0
578 65 1 0 16.862420290517395 11.090258467151276 12.702796542963545 0 0 0
583 65 2 0 15.927630588629256 11.934887641942314 11.440821466788321 0 0 0
544 61 2 0 -9.86435359254314 10.746717750373573 13.535489610410513 0 0 0
591 66 2 0 -10.620793085366463 15.651931315386307 13.63344348520622 0 0 0
587 66 1 0 -9.002783868024402 15.425182161475078 12.812497933919964 0 0 0
593 66 2 0 -8.204980276014407 14.575035834938035 11.46016854423104 0 0 0
598 67 2 0 -7.4052527098916485 15.167717139154295 13.597432575027858 0 0 0
600 67 2 0 -4.313698220303995 15.5642917086207 13.435905419583792 0 0 0
596 67 1 0 -2.997795052060428 15.499006094233597 12.254230158398796 0 0 0
607 68 2 0 -1.856286129936895 15.39575331480982 13.614504656769734 0 0 0
609 68 2 0 0.8080222511312085 16.068303631734842 13.562830471793434 0 0 0
605 68 1 0 2.4448999835821423 15.741886623608703 12.824679182060056 0 0 0
611 68 2 0 3.2220774497131606 14.757859147727693 11.51540593340771 0 0 0
616 69 2 0 4.051958341358891 15.363138869646967 13.55047223893938 0 0 0
618 69 2 0 7.148225697307994 15.905457016979291 13.57237287627006 0 0 0
614 69 1 0 8.344402205508864 15.614405447176441 12.301219672474256 0 0 0
620 69 2 0 9.169484504587224 14.38081430917152 11.330192913259717 0 0 0
625 70 2 0 9.632860803954685 15.324426950418761 13.500662475655934 0 0 0
627 70 2 0 12.134721964295235 15.674434347211264 13.439680262822199 0 0 0
623 70 1 0 13.704126991352865 15.411450931024103 12.589482375378509 0 0 0
629 70 2 0 14.593562054281435 14.488864166051354 11.38823180601458 0 0 0
589 66 2 0 15.224085616443283 15.13122465855906 13.504149370271781 -1 0 0
592 66 2 0 -9.78110792447696 16.418211600094764 11.55281682301726 0 0 0
601 67 2 0 -3.9355072979599504 16.648742065857107 11.300584058940993 0 0 0
619 69 2 0 7.448506576317425 16.794963816967144 11.320286714142364 0 0 0
628 70 2 0 12.944224678829627 16.546704325397677 11.442192761704565 0 0 0
674 75 2 0 12.231299233459367 19.07365699473165 11.515942390176699 0 0 0
632 71 1 0 -11.699511090207118 20.572366237110415 12.572585176849149 0 0 0
636 71 2 0 -13.378340884456112 20.474001216314342 13.309113666117534 0 0 0
637 71 2 0 -12.58515542455591 21.700228682198293 11.502441927005185 0 0 0
638 71 2 0 -10.762570206934654 19.42291697773692 11.55510616171069 0 0 0
643 72 2 0 -10.057335205106906 20.53416810032907 13.432080282972093 0 0 0
645 72 2 0 -7.7225666380214575 21.01598712037301 13.495327945758794 0 0 0
641 72 1 0 -6.083370039699408 20.672185432805282 12.74147051164199 0 0 0
646 72 2 0 -6.772103264409998 21.643974732298382 11.426375751339187 0 0 0
647 72 2 0 -5.185962014565859 19.759270831199707 11.486526222432735 0 0 0
652 73 2 0 -4.592925088336835 20.083810527057647 13.583268137248917 0 0 0
654 73 2 0 -1.374125300845038 20.662156491770073 13.52415613731211 0 0 0
655 73 2 0 -1.179210365908987 21.64383776598463 11.478949691146092 0 0 0
650 73 1 0 -0.143423356927328 20.41298034890331 12.250846865762655 0 0 0
661 74 2 0 1.1076958871523255 20.229746677432143 13.517216967368638 0 0 0
659 74 1 0 5.153039847427871 20.421140559642357 12.722704125898195 0 0 0
663 74 2 0 3.5682582530456584 20.630981103375053 13.582286311478741 0 0 0
664 74 2 0 4.316191943269186 21.389927925383873 11.510635693850135 0 0 0
665 74 2 0 5.930501335055921 19.548070532418908 11.406162830661646 0 0 0
670 75 2 0 6.787100407700806 20.201035420679542 13.400990061502883 0 0 0
668 75 1 0 11.192194335161442 20.379269497522802 12.217049883597385 0 0 0
672 75 2 0 9.919724324543882 20.623974630827874 13.491096807491212 0 0 0
673 75 2 0 10.090663240335981 21.581815190894428 11.447745656677126 0 0 0
634 71 2 0 12.42230842963476 20.18124470596756 13.475056803559793 -1 0 0
459 51 2 0 1.5707637345870342 -0.2477246511210902 15.724728703352417 0 0 0
678 76 1 0 1.1261594259882188 -1.7630197666002305 16.558148185122427 0 0 0
468 52 2 0 7.317326459545648 -0.09913110769291 15.70488132659658 0 0 0
687 77 1 0 6.888549890461413 -1.3762284466279615 16.87526105724954 0 0 0
696 78 1 0 12.511340977449372 -1.711614471901183 16.422525765452683 0 0 0
477 53 2 0 13.086238478652032 -0.17397745210641213 15.699063141059268 0 0 0
486 54 2 0 18.4097412404907 0.21811900691626684 15.694142547222706 0 0 0
705 79 1 0 18.032958490572447 -1.3750443837534865 16.49718602435533 0 0 0
495 55 2 0 24.135449950265585 -0.3229353133424311 15.600118059991308 0 0 0
714 80 1 0 23.69657085666794 -1.7208665137993238 16.561187326453066 0 0 0
451 51 1 0 -3.1413246939558084 0.9709233844390872 14.836105068943398 0 0 0
455 51 2 0 -2.176602124299508 2.3297556282250556 15.599013331000654 0 0 0
723 81 1 0 -1.69215053670947 3.4428091167522243 16.901983360018882 0 0 0
460 52 1 0 2.5007626865035855 1.024082736052653 14.926886124123952 0 0 0
464 52 2 0 3.535870629064534 2.358121693657643 15.654556754633143 0 0 0
732 82 1 0 4.018150660038073 3.507200988893861 16.921015348666586 0 0 0
469 53 1 0 8.100124755260502 0.9043592776845717 14.50208627212996 0 0 0
473 53 2 0 8.859631276755291 1.8926327936378877 15.742660751770048 0 0 0
741 83 1 0 9.337278349003682 3.2168263953179865 16.842385119259454 0 0 0
478 54 1 0 14.075951576305748 1.0651625287972517 14.88601031533849 0 0 0
482 54 2 0 15.098137360451972 2.207537850583475 15.790199600487133 0 0 0
750 84 1 0 15.710655282035411 3.40857099539722 16.972486906131934 0 0 0
487 55 1 0 19.250319497611144 1.2707737240789885 14.54639372903941 0 0 0
491 55 2 0 20.15350808672909 2.320072139734086 15.690225456035401 0 0 0
759 85 1 0 20.552897165902024 3.4407364493260175 17.024486991243222 0 0 0
496 56 1 0 -6.115766571390534 5.802717750409415 14.93447598551287 0 0 0
500 56 2 0 -5.0904914692127665 7.091430983448775 15.680952781288477 0 0 0
504 56 2 0 -1.2363567363131915 4.585346696584109 15.628711118698183 0 0 0
505 57 1 0 -0.2668760822455827 5.7641418871643495 14.67426213608306 0 0 0
509 57 2 0 0.6476939663622057 6.91874452198286 15.69196736703808 0 0 0
513 57 2 0 4.4997843024927535 4.705026363030441 15.68981280338451 0 0 0
514 58 1 0 5.205504709305569 5.634253016256061 14.407244891424066 0 0 0
518 58 2 0 6.012658883454217 6.636655526224765 15.612431501225776 0 0 0
522 58 2 0 9.915876819233663 4.462239879397239 15.719991693383514 0 0 0
523 59 1 0 10.975903127417403 5.699470787091994 14.931454031158045 0 0 0
531 59 2 0 16.18024141335664 4.534259658716268 15.705032580220658 0 0 0
532 60 1 0 16.92143156804072 5.497881778049224 14.378441831851786 0 0 0
536 60 2 0 17.682549778746008 6.536007469442041 15.631218833996977 0 0 0
540 60 2 0 21.069634553916135 4.59023753031314 15.736703355044925 0 0 0
768 86 1 0 -4.685860530924651 8.619651232916858 16.560933559635757 0 0 0
549 61 2 0 -4.25570783749093 10.184308938386156 15.716875092306543 0 0 0
777 87 1 0 1.2055203591667025 8.342986733295614 16.65435496709054 0 0 0
558 62 2 0 1.8551755423692295 9.651728215536252 15.607132458552998 0 0 0
786 88 1 0 6.586786489439608 8.055956176952343 16.551023113270666 0 0 0
567 63 2 0 7.129047204808647 9.368732203370367 15.481978682052029 0 0 0
527 59 2 0 12.129347389815806 6.963565219235016 15.57523094145098 0 0 0
795 89 1 0 12.52721121346869 8.483233580892101 16.421590519738885 0 0 0
576 64 2 0 13.02303720732716 10.039915614669123 15.626529070529918 0 0 0
804 90 1 0 18.083966177459047 8.0682604549466 16.487232616430397 0 0 0
585 65 2 0 18.543747738040214 9.597653719000348 15.684700264718122 0 0 0
541 61 1 0 -8.684817992328645 10.829307336375273 14.885122517263008 0 0 0
545 61 2 0 -7.658374406138489 12.108398812090833 15.69677529861996 0 0 0
550 62 1 0 -3.397806988505443 11.117597905367056 14.488014453872983 0 0 0
554 62 2 0 -2.62779664406217 12.133098927058182 15.7426517738291 0 0 0
563 63 2 0 3.7047216072474223 11.807605029375583 15.483436772440347 0 0 0
831 93 1 0 4.138412905649807 13.203006953084117 16.510742734161262 0 0 0
568 64 1 0 8.145528954668883 10.641159577715488 14.767825438696134 0 0 0
572 64 2 0 9.167692338445242 11.825019224456973 15.668477966628737 0 0 0
840 94 1 0 9.698769815178146 13.034719012276707 16.85201715019179 0 0 0
577 65 1 0 13.7418119874419 11.028916057118256 14.350813694586316 0 0 0
581 65 2 0 14.57221894746533 11.935726220073548 15.644650243146566 0 0 0
586 66 1 0 -11.901638873161168 15.4712132716211 14.819730975273922 0 0 0
813 91 1 0 -7.138948693136808 13.295029117162404 16.8878345942558 0 0 0
594 66 2 0 -6.703934903739859 14.568005175882085 15.713286172525526 0 0 0
595 67 1 0 -5.82235011453381 15.414689596512567 14.385142750101783 0 0 0
603 67 2 0 -1.4164864825174215 14.592368036152891 15.672129154120269 0 0 0
822 92 1 0 -1.960602289662929 13.358358898456679 16.84301467469531 0 0 0
604 68 1 0 -0.49634856542550043 15.7636968970695 14.731901640643729 0 0 0
612 68 2 0 4.683349477966371 14.670897115935485 15.613992220176668 0 0 0
613 69 1 0 5.562304826519257 15.71124613432561 14.444454456509584 0 0 0
621 69 2 0 10.022871088318443 14.267576174391266 15.605394430977748 0 0 0
622 70 1 0 10.926214891910448 15.575232766799449 14.723642204522614 0 0 0
849 95 1 0 14.912321621342016 13.119731930985715 16.97105071224162 0 0 0
630 70 2 0 15.28196114764176 14.387049188529588 15.751533273594577 0 0 0
590 66 2 0 -10.955829934643738 16.734511839950038 15.610961211107517 0 0 0
858 96 1 0 -10.472131508446873 18.21629667800569 16.489941695736704 0 0 0
599 67 2 0 -4.868978636701875 16.458840728833973 15.473783940916425 0 0 0
867 97 1 0 -4.3759558297308425 17.89205975837124 16.43650851615638 0 0 0
608 68 2 0 0.40014015293626226 17.00901822286364 15.629033139474197 0 0 0
876 98 1 0 0.7521069877369859 18.20291436779137 16.897924219070497 0 0 0
617 69 2 0 6.307867191552984 16.81637571032536 15.577203420872278 0 0 0
885 99 1 0 6.718240749935714 18.285576307748112 16.546195770224934 0 0 0
626 70 2 0 11.843830085880441 16.883265196962668 15.511848617485823 0 0 0
894 100 1 0 12.144243247760404 18.045032127938637 16.858003328765697 0 0 0
675 75 2 0 12.605289941863113 19.150814645240523 15.531158964099275 0 0 0
631 71 1 0 -14.523371976354216 20.21481173605044 14.64172703211611 0 0 0
635 71 2 0 -13.406882685381856 21.261890126719866 15.611722189703405 0 0 0
639 71 2 0 -10.080185841876535 19.741814446171347 15.585553524208807 0 0 0
640 72 1 0 -8.921156276639815 20.865215801297786 14.75789155375176 0 0 0
644 72 2 0 -7.924511149641389 22.037859013218483 15.645806342271266 0 0 0
648 72 2 0 -3.746782371961774 19.397819961668134 15.632939360875591 0 0 0
649 73 1 0 -2.973867589863043 20.302522370528408 14.326673158760835 0 0 0
653 73 2 0 -2.10208358524267 21.263021292727696 15.543637235168559 0 0 0
657 73 2 0 1.218439107572661 19.434468140755907 15.685388789224154 0 0 0
658 74 1 0 2.307673033913427 20.53602490616274 14.784747513334421 0 0 0
662 74 2 0 3.4010283601875253 21.632066170142576 15.647286608105338 0 0 0
666 74 2 0 7.3101452741748405 19.64471301849737 15.519415053089316 0 0 0
667 75 1 0 8.320313013914419 20.423192309510455 14.260339559184521 0 0 0
671 75 2 0 9.129429287412403 21.389478405160837 15.53505867406337 0 0 0
683 76 2 0 0.6737781181221267 -0.6122164114371862 17.78377529447986 0 0 0
688 77 2 0 0.776930247851757 0.38675261978555575 19.85438606381004 0 0 0
686 77 1 0 5.446897445179773 1.062095031061931 18.960496629558996 0 0 0
692 77 2 0 6.343851418706147 0.0873959718828643 17.75530874963181 0 0 0
697 78 2 0 6.9739221831100595 0.8644338116660402 19.83757528802016 0 0 0
695 78 1 0 10.951845801513187 0.6171105428956376 18.551436110516626 0 0 0
701 78 2 0 12.052089297743752 -0.550522203558256 17.70588257192695 0 0 0
706 79 2 0 12.212655567534178 0.3619659974149423 19.781393672869143 0 0 0
710 79 2 0 17.704565626974546 -0.17825103124145425 17.791575877264172 0 0 0
715 80 2 0 18.3913115294945 0.4851312394556304 19.97382982877854 0 0 0
719 80 2 0 23.139605045021796 -0.587423912174398 17.827231814309314 0 0 0
682 76 2 0 -1.3577780397406203 1.9601344619505445 17.77800629109465 0 0 0
681 76 2 0 -1.6801592486507428 1.0185094826524388 19.76750128016169 0 0 0
677 76 1 0 -0.4337288350281949 0.6123339037539477 18.58541687636103 0 0 0
691 77 2 0 4.578016254864034 1.9661338481233583 17.706476829079513 0 0 0
690 77 2 0 3.85510965992792 1.2405959301988214 19.765798260074675 0 0 0
700 78 2 0 9.859254683186222 1.7601713059168071 17.759645943329495 0 0 0
699 78 2 0 9.740331844112408 0.8398163212559377 19.81985782057201 0 0 0
709 79 2 0 16.162465346443717 1.8411529787351046 17.817855888240686 0 0 0
708 79 2 0 15.377285706368095 1.0002047374139633 19.90981426149653 0 0 0
704 79 1 0 16.908107775287966 0.7866705811315406 19.032901139716216 0 0 0
718 80 2 0 21.040283555730273 1.8820874488765922 17.774186022058643 0 0 0
717 80 2 0 20.851002873574984 0.9398024593269914 19.877707140992975 0 0 0
713 80 1 0 22.072427716577835 0.6569860172654369 18.581686758197932 0 0 0
726 81 2 0 -4.266232461281586 6.451200808092861 19.770910190228115 0 0 0
722 81 1 0 -2.9633822274303965 6.27651932204973 18.559564188876017 0 0 0
727 81 2 0 -4.15077354800019 7.445800314013462 17.7538982022211 0 0 0
728 81 2 0 -1.9575806068256059 5.048208519094416 17.696787936597673 0 0 0
733 82 2 0 -1.5961208733859111 6.199751941113827 19.661750170810308 0 0 0
731 82 1 0 2.6146315289640425 6.0378513004517105 18.938066192908032 0 0 0
735 82 2 0 0.9934910528038099 6.373781022243365 19.723610138469056 0 0 0
737 82 2 0 3.4303272535583744 5.079532851075898 17.695282806114506 0 0 0
742 83 2 0 4.195336647946462 5.713694361475712 19.765068613985093 0 0 0
740 83 1 0 8.101944647518955 5.840454028440814 18.85459880796325 0 0 0
744 83 2 0 6.615231834593064 6.210785198777246 19.7835576188306 0 0 0
745 83 2 0 7.272971517044687 6.7529703258400255 17.582061125118805 0 0 0
746 83 2 0 8.85439822670099 4.741115635593622 17.70722131280212 0 0 0
749 84 1 0 14.121673072000114 6.160008899405477 18.534007547735555 0 0 0
755 84 2 0 15.188476995164145 4.936504219653388 17.76291040675291 0 0 0
760 85 2 0 15.34540574122316 6.025730056423133 19.807709524950766 0 0 0
758 85 1 0 19.264534449698086 6.035156587160027 19.097512666783274 0 0 0
764 85 2 0 20.01580728769658 4.944289376070829 17.913232367763968 0 0 0
724 81 2 0 20.897773538592354 5.734181832466002 19.829271236706376 -1 0 0
773 86 2 0 -5.09852766888257 9.807644548108701 17.80181383395977 0 0 0
736 82 2 0 1.8264036574740157 6.9264709331596555 17.628192311536154 0 0 0
782 87 2 0 0.4597929257322386 9.82586129786899 17.421914064983696 0 0 0
791 88 2 0 6.224083227290548 9.372555065543935 17.70781794983374 0 0 0
754 84 2 0 13.107956632476576 7.392281851139349 17.65614708003607 0 0 0
800 89 2 0 12.023420400022534 9.650695818123292 17.709635163989205 0 0 0
763 85 2 0 18.455850298429052 6.85519734147431 17.755663877370637 0 0 0
809 90 2 0 17.478724351751453 9.188637964878389 17.731842158951174 0 0 0
772 86 2 0 -6.681585505950531 11.776521006616807 17.774632824784824 0 0 0
771 86 2 0 -7.509642285206875 11.180267892154713 19.84064964821315 0 0 0
767 86 1 0 -5.922835018108477 10.800159083881987 19.038688169497668 0 0 0
778 87 2 0 -4.393747788821874 10.504971907797298 19.94311176911326 0 0 0
781 87 2 0 -1.3063528481817839 11.884469451946625 17.658902679114732 0 0 0
780 87 2 0 -1.8119678814537155 10.866774135571191 19.77200466593066 0 0 0
776 87 1 0 -0.42602566305610967 10.731477494875207 18.647460221873942 0 0 0
787 88 2 0 0.8016389333894303 10.473694808232672 19.903615657523318 0 0 0
790 88 2 0 4.418367190623315 11.955995561382434 17.781886928418835 0 0 0
785 88 1 0 5.2737109058160865 10.59206941733462 18.60559664589244 0 0 0
789 88 2 0 3.949302994653186 10.905379646136272 19.78717416076116 0 0 0
796 89 2 0 6.470460792705043 10.26562380717635 19.895636740905637 0 0 0
799 89 2 0 10.32818489855902 11.54988494441912 17.69309135179774 0 0 0
794 89 1 0 11.223503816864838 10.606432387711084 18.939421307495515 0 0 0
808 90 2 0 15.402615131325025 11.593298325026801 17.72062008184262 0 0 0
803 90 1 0 16.422060738033124 10.383154935810584 18.58863947170176 0 0 0
769 86 2 0 17.739152006132247 10.308636371495055 19.80289139541022 -1 0 0
816 91 2 0 -10.04846778764128 16.09023584579162 19.761895386840713 0 0 0
812 91 1 0 -8.777759449302948 15.925280562515947 18.56400387233146 0 0 0
818 91 2 0 -7.638676737622537 14.812523574909711 17.731465611459228 0 0 0
823 92 2 0 -7.579930165236657 15.823665856788203 19.844944495213994 0 0 0
825 92 2 0 -4.992582015116747 16.178808598355797 19.816600495833846 0 0 0
821 92 1 0 -3.3913033213967365 15.74210140958094 19.027065927886518 0 0 0
827 92 2 0 -2.5330475366996383 14.775705436084593 17.794288652798706 0 0 0
832 93 2 0 -1.8041198746035567 15.474453550989523 19.817610160408535 0 0 0
834 93 2 0 1.3595576297914027 16.019010750644075 19.679662660018238 0 0 0
830 93 1 0 2.59712412446424 15.644676148735858 18.48745501033322 0 0 0
836 93 2 0 3.727734393579543 14.42428596057221 17.71120687033028 0 0 0
841 94 2 0 3.868161658352066 15.518070955432208 19.707524131920835 0 0 0
843 94 2 0 7.001863949236141 16.063249658561777 19.75762343757819 0 0 0
839 94 1 0 8.27860791754635 15.84064136687715 18.527021143673664 0 0 0
845 94 2 0 9.313047258354779 14.537335076868004 17.758185334758792 0 0 0
850 95 2 0 9.45480376699198 15.600509250329743 19.830370765702867 0 0 0
852 95 2 0 11.976445818714517 15.97903873437685 19.919697604180122 0 0 0
848 95 1 0 13.52655009788883 15.641978071071911 19.039064177977558 0 0 0
854 95 2 0 14.299973224468978 14.597593268498631 17.797259619351372 0 0 0
814 91 2 0 15.122997740050593 15.395134864842035 19.811810866337318 -1 0 0
817 91 2 0 -9.888968817438904 17.127046029098015 17.73235315615011 0 0 0
826 92 2 0 -4.073241352446222 16.660287840324937 17.64555048088763 0 0 0
835 93 2 0 1.5254870696597598 16.70405779367096 17.558157802255415 0 0 0
881 98 2 0 0.22861229792908677 19.75500588993186 17.699570135895783 0 0 0
844 94 2 0 7.291042692913579 17.06750301974382 17.698271990613698 0 0 0
853 95 2 0 12.610009682780198 16.529829700751446 17.768605374746706 0 0 0
862 96 2 0 -12.387366821948582 21.4849362636793 17.622750719432467 0 0 0
857 96 1 0 -11.721706686337821 20.4662278498392 18.91030733018637 0 0 0
861 96 2 0 -13.277206032702505 20.926616665458663 19.683042211793207 0 0 0
863 96 2 0 -10.876486909017796 19.43191603350941 17.72223416482167 0 0 0
868 97 2 0 -10.22489458631177 19.975608024843318 19.84373920025824 0 0 0
871 97 2 0 -6.730503146521808 21.54607061616881 17.577781520491186 0 0 0
870 97 2 0 -7.077384218532488 20.518131053840744 19.765423019938233 0 0 0
866 97 1 0 -5.764669159513367 20.366698762906164 18.5377237810959 0 0 0
872 97 2 0 -4.779622746608065 19.13108378746578 17.641414784503958 0 0 0
877 98 2 0 -4.529310362934322 20.192196966641742 19.79206527129889 0 0 0
880 98 2 0 -1.3523756283940225 21.612941691618698 17.734364866103597 0 0 0
879 98 2 0 -2.1188039779300416 20.952797464722778 19.810965690162057 0 0 0
875 98 1 0 -0.5045371652739652 20.694451800832436 19.010101492207156 0 0 0
886 99 2 0 1.0854178239290926 20.32149154673602 19.800437490843215 0 0 0
889 99 2 0 4.485411809087041 21.979889743738067 17.69175310869575 0 0 0
884 99 1 0 5.448333884144049 20.771530701318756 18.600942991195765 0 0 0
888 99 2 0 4.096386605697387 20.984615213489697 19.721720349261275 0 0 0
890 99 2 0 6.455075272584309 19.498524915360104 17.797555067232203 0 0 0
895 100 2 0 6.701871459105512 20.42045734027263 19.82303215483536 0 0 0
898 100 2 0 9.905823103518301 21.660265350135084 17.884555428459628 0 0 0
893 100 1 0 10.747800565592549 20.481049587075095 18.97356689647217 0 0 0
897 100 2 0 9.192918147088829 20.761547638503416 19.903757136628748 0 0 0
899 100 2 0 11.54632704357126 19.553131822665733 17.683299815813413 0 0 0
859 96 2 0 12.407000054367177 20.300872411708422 19.670068265787307 -1 0 0
720 80 2 0 24.084988314527386 0.14179393586903366 21.89032860709895 0 0 0
684 76 2 0 1.6188196528413998 -0.20717108665344686 21.960154925680307 0 0 0
693 77 2 0 7.1920554456549 -0.28282587615084265 21.751695040244833 0 0 0
694 78 1 0 8.378147745812779 0.8182808826109613 20.95679879152842 0 0 0
702 78 2 0 12.818580456198013 -0.12042608918769959 21.886320858348462 0 0 0
921 103 1 0 12.414237348322867 -1.3670449505426996 23.079571388451633 0 0 0
711 79 2 0 18.52491940238871 -0.5209137748904313 21.989925808161352 0 0 0
679 76 2 0 23.38927197485668 0.5134709790960237 19.770356765458274 -1 0 0
676 76 1 0 -3.3022590073196767 0.9023426318639061 20.578685006649003 0 0 0
680 76 2 0 -2.481044479582107 2.0860887460860544 21.622540932669132 0 0 0
948 106 1 0 -2.0830032172737853 3.5700834648697812 22.489349975083606 0 0 0
685 77 1 0 2.394689365765898 0.7344442905792232 20.67723038361185 0 0 0
689 77 2 0 3.2180288712426757 1.6692439474731682 21.922959704082906 0 0 0
957 107 1 0 3.885477867132672 3.2159681410258285 22.65032437363051 0 0 0
698 78 2 0 9.539713574393552 1.8281420542890858 21.9233722120195 0 0 0
703 79 1 0 13.753665740075814 0.7586104708228683 20.64214082534116 0 0 0
707 79 2 0 14.443946309910665 1.8655595128324984 21.787878275319144 0 0 0
975 109 1 0 14.916997474762024 3.4162076578121345 22.592484699548493 0 0 0
712 80 1 0 19.70055097659608 0.6489479930796103 21.186606411825018 0 0 0
716 80 2 0 20.755181372697756 1.925749650428891 21.943082586137884 0 0 0
984 110 1 0 21.254126685890284 3.48532893706959 22.619422284519047 0 0 0
721 81 1 0 -5.8408757408857355 6.12739532190102 20.59794232210325 0 0 0
765 85 2 0 -6.575707989522742 4.990717500971535 21.739247127682177 1 0 0
730 82 1 0 -0.29601061745471036 6.190018180504546 20.903713757616323 0 0 0
729 81 2 0 -1.5489158531116596 5.074870346816206 21.660333065456136 0 0 0
739 83 1 0 5.385739408229065 5.964682087740594 21.06053914323285 0 0 0
738 82 2 0 4.370265433989595 4.78323456744005 21.839779867289266 0 0 0
743 83 2 0 6.504621254738679 7.163130943566105 21.87319253608932 0 0 0
751 84 2 0 9.579592419852741 5.498794145177115 19.77200613193188 0 0 0
748 84 1 0 11.201878333610946 5.866701573607997 20.52644676585568 0 0 0
747 83 2 0 10.560449860113668 4.865845664439202 21.815186569518943 0 0 0
753 84 2 0 12.769602652479286 6.3813406386389095 19.687900998637318 0 0 0
752 84 2 0 11.96805326050594 6.78299747706581 21.81740828064462 0 0 0
757 85 1 0 16.461692827970953 6.228423110677455 21.206190046038856 0 0 0
756 84 2 0 15.284859201236301 5.042912724565053 21.795624847459635 0 0 0
762 85 2 0 17.713551651006362 6.4349998956532675 19.944408489677492 0 0 0
725 81 2 0 -4.9445636936996 7.06806733633015 21.795453037308754 0 0 0
774 86 2 0 -3.9851730359261497 9.326310149413224 21.90584201693511 0 0 0
734 82 2 0 0.7598664196958351 7.271791439338057 21.911336199499367 0 0 0
783 87 2 0 1.627286702684204 9.655094849558274 21.859114412904276 0 0 0
792 88 2 0 7.299571411413612 9.527946623244254 21.87988852603786 0 0 0
801 89 2 0 12.877638704403505 9.113833662945801 21.95389726422698 0 0 0
761 85 2 0 17.58132346555162 7.415851538331588 21.99424566573221 0 0 0
810 90 2 0 18.50030275406189 9.716598706582264 21.924438432317075 0 0 0
766 86 1 0 -9.050800015468639 10.776280168147377 20.680702386361105 0 0 0
770 86 2 0 -8.267224051002419 11.834066705962044 21.866421531378883 0 0 0
775 87 1 0 -3.0078372365734642 10.573335673987536 21.04963855124062 0 0 0
779 87 2 0 -1.9665354190018514 11.754372763179497 21.90746270611696 0 0 0
1047 117 1 0 -1.4525215519253818 13.315639205789669 22.702944124052422 0 0 0
784 88 1 0 2.4263030558891243 10.741497121957089 20.709840305189772 0 0 0
788 88 2 0 3.331966131702937 11.791804598181564 21.837657510629604 0 0 0
1056 118 1 0 3.9046871289886758 13.314118823667851 22.612663820260245 0 0 0
793 89 1 0 8.12533845763576 10.516437304807315 20.65925860843584 0 0 0
797 89 2 0 8.95503522807191 11.633847714129153 21.78801026971761 0 0 0
798 89 2 0 9.630661414833863 10.875577118292256 19.73075777574074 0 0 0
805 90 2 0 12.699229507552314 10.268032038586625 19.844671138841875 0 0 0
802 90 1 0 13.95187749624533 10.34598387853012 21.16467948645368 0 0 0
807 90 2 0 15.128863102450143 10.521307636758529 19.796625984908133 0 0 0
806 90 2 0 15.126841912271285 11.5049586815977 21.886000104068366 0 0 0
811 91 1 0 -11.62052470844478 15.696868815965164 20.597270215145187 0 0 0
855 95 2 0 -12.409112943359919 14.685133444618852 21.794224095748397 1 0 0
820 92 1 0 -6.274423100735215 16.016100672906788 21.04231010083911 0 0 0
819 91 2 0 -7.397985540014569 14.848790054655314 21.879647901012305 0 0 0
1038 116 1 0 -7.7447216943672075 13.31950604820505 22.757875297053893 0 0 0
829 93 1 0 -0.2084076797087162 15.744144150157883 20.5387983218385 0 0 0
828 92 2 0 -0.9558104096350499 14.804081378991544 21.875358948257038 0 0 0
838 94 1 0 5.411437703298897 15.78580440361663 20.592690686953517 0 0 0
837 93 2 0 4.518729599974804 14.781093486257621 21.794303414703506 0 0 0
847 95 1 0 10.689363362214166 15.769058094960545 21.078033001328564 0 0 0
846 94 2 0 9.677719144472807 14.54987135319131 21.920466042079404 0 0 0
815 91 2 0 -10.777551577043582 16.497230994318397 21.928625013501595 0 0 0
824 92 2 0 -5.225396928292594 17.102168900998883 22.02918359476066 0 0 0
1092 122 1 0 -4.775435828157936 18.309849857359794 23.265533134753724 0 0 0
833 93 2 0 0.6402607153800846 16.617846404012436 21.825069913927237 0 0 0
1101 123 1 0 1.343987996873122 18.032538073088677 22.738851609023172 0 0 0
842 94 2 0 6.232517546364572 16.702097683058323 21.893560332754376 0 0 0
891 99 2 0 6.887729544639879 19.11841228806692 21.893776185162658 0 0 0
1110 124 1 0 6.57983953847859 17.903260842935108 23.161132962830862 0 0 0
851 95 2 0 11.872948720406153 16.875403193865353 21.928563306654063 0 0 0
1119 125 1 0 12.43492857659588 18.154611902923193 23.019717429789786 0 0 0
856 96 1 0 -14.614420208366315 20.65567957576574 20.88561380958442 0 0 0
900 100 2 0 12.771796798100343 19.447844188392953 21.851694588325437 0 0 0
860 96 2 0 -13.609521260140951 21.85201475624146 21.80039670248305 0 0 0
865 97 1 0 -8.631740589790654 20.208414197414776 20.688383052058448 0 0 0
864 96 2 0 -9.466345927428822 19.315182495038933 21.969166759673442 0 0 0
869 97 2 0 -7.9127696699068215 21.187169781133402 21.985704650094966 0 0 0
874 98 1 0 -3.3695180552736472 20.688452909306193 21.08361151031506 0 0 0
873 97 2 0 -4.3941674004726154 19.575514671752003 22.055174596162537 0 0 0
878 98 2 0 -2.3741565892563257 21.923568647771745 21.90157241204819 0 0 0
883 99 1 0 2.6311542211244694 20.576750671749963 20.674863289042456 0 0 0
882 98 2 0 1.9785557753781058 19.503286321237923 21.935202277422952 0 0 0
887 99 2 0 3.5586469527491014 21.520603777396563 21.874088735363493 0 0 0
892 100 1 0 7.924944296206637 20.426095853968622 21.123394125671297 0 0 0
896 100 2 0 8.904382316233512 21.610704571830105 22.076053876753264 0 0 0
903 101 1 0 0.9461914663671047 -1.4549184091744345 23.044369940722916 0 0 0
908 101 2 0 0.43424823340677143 0.13651256785160992 23.78366438142472 0 0 0
917 102 2 0 6.298130925757351 -0.4944682558408029 23.996027980013864 0 0 0
912 102 1 0 6.662170997403675 -1.7224638034855253 22.75164979098662 0 0 0
920 103 1 0 11.156737282101027 1.1446737145821921 25.19350200803239 0 0 0
926 103 2 0 11.944016741478478 0.11994987346171948 23.97096162492562 0 0 0
930 104 1 0 18.04716492015895 -1.7577202739723197 23.14188899822915 0 0 0
935 104 2 0 17.515812200573865 -0.2598775058232099 23.947800845714895 0 0 0
939 105 1 0 23.524429257765977 -1.3145290140815256 22.86883606809775 0 0 0
944 105 2 0 23.218806966870794 -0.10187363587572884 24.13027255054459 0 0 0
907 101 2 0 -1.5063711088378988 2.4618521030583063 23.75425077386756 0 0 0
902 101 1 0 -0.5563125383781271 1.3072038244490543 24.725560947943663 0 0 0
916 102 2 0 4.269301740398618 2.040108767365905 23.958501417366655 0 0 0
911 102 1 0 5.266895662656179 0.7653914652054112 24.788211312030512 0 0 0
925 103 2 0 10.341570428436999 2.263273889178004 24.060142871493966 0 0 0
966 108 1 0 10.047934925658488 3.3738564380171567 22.708533234894396 0 0 0
934 104 2 0 15.469796758063918 2.280601183076598 23.860918938214873 0 0 0
929 104 1 0 16.502138638510043 1.0216685588081642 24.69969853749179 0 0 0
943 105 2 0 21.57089576694237 2.393983140781688 23.968599180060494 0 0 0
938 105 1 0 22.349571151244767 1.2046786875144608 25.08051910359348 0 0 0
947 106 1 0 -3.2581924345559816 5.577653866416781 25.15360661090658 0 0 0
953 106 2 0 -2.482254482809534 4.698515007352625 23.805243584272993 0 0 0
956 107 1 0 2.6227896691177746 5.755415430879402 24.751544026565064 0 0 0
962 107 2 0 3.5214058944593676 4.415463098974872 23.899557487645986 0 0 0
965 108 1 0 8.364041897760746 5.602341734329086 24.854186041296963 0 0 0
970 108 2 0 7.2965812218603014 6.785979656163577 24.00801246952549 0 0 0
971 108 2 0 9.494228278173807 4.565076284253916 23.90201935053861 0 0 0
974 109 1 0 13.822744752128095 5.461458784269538 25.268758160215775 0 0 0
979 109 2 0 12.938958975669067 6.45910608866046 24.105289177423884 0 0 0
980 109 2 0 14.52361174078085 4.6093247239668695 23.871914803792876 0 0 0
983 110 1 0 19.815524639585465 5.8343599972178355 24.775351478410144 0 0 0
989 110 2 0 20.907581089352377 4.71486096623074 23.84836141714233 0 0 0
993 111 1 0 -4.513318727080509 8.166656514671072 23.153609601295315 0 0 0
952 106 2 0 -4.0474064670062395 6.562397892547515 23.89052633395628 0 0 0
998 111 2 0 -4.88925024358477 9.751174870812125 23.947374084060264 0 0 0
961 107 2 0 1.6654405602836553 7.06759568679752 24.021035126489025 0 0 0
1002 112 1 0 1.1285481206477028 8.51439099048121 23.136706774216165 0 0 0
1011 113 1 0 6.905129077382951 8.337545556119345 23.162364705059588 0 0 0
1016 113 2 0 6.479280396677569 9.92447815328736 23.957103760885076 0 0 0
1020 114 1 0 12.431157103160263 7.909910811712369 23.135689656318043 0 0 0
1025 114 2 0 11.968865932816186 9.428503683255109 23.94599724333211 0 0 0
988 110 2 0 18.756334095667466 7.071423700888924 24.025450428702918 0 0 0
1029 115 1 0 18.200428698533056 8.55259672154585 23.218522230544714 0 0 0
997 111 2 0 -7.197464615655282 12.028831835540878 23.864317424817543 0 0 0
992 111 1 0 -6.042572332699644 10.929823096003865 24.730323722660202 0 0 0
1006 112 2 0 -0.9002111412522948 12.059290948667584 23.834641462789484 0 0 0
1001 112 1 0 -0.126422073838099 11.095128722598144 25.08513970480773 0 0 0
1007 112 2 0 0.6713021095731797 10.0535712079569 23.92087715136004 0 0 0
1015 113 2 0 4.25558700264926 12.132212002826673 23.90872697535613 0 0 0
1010 113 1 0 5.375585902480878 11.03859461818578 24.826275413387613 0 0 0
1024 114 2 0 9.833421738001348 11.741893654020139 23.875811999587732 0 0 0
1019 114 1 0 10.919882485039025 10.640891023845462 24.777934221288277 0 0 0
1065 119 1 0 9.330984970684263 13.04839111646454 22.801335926318202 0 0 0
1033 115 2 0 15.963643371521641 12.041686640105187 23.996898544274018 0 0 0
1028 115 1 0 16.761144837377245 11.092831383341146 25.24135507077795 0 0 0
1074 120 1 0 15.524827712945203 13.114117400230871 22.667963421584602 0 0 0
1034 115 2 0 17.56214102549691 10.072167326917494 24.009560047932638 0 0 0
1037 116 1 0 -8.946348924012426 15.528013104752027 25.27671682704913 0 0 0
1043 116 2 0 -8.224860484609994 14.531839489754454 24.022196413495358 0 0 0
1046 117 1 0 -3.030607314652406 15.670237891755676 24.81972371066803 0 0 0
1052 117 2 0 -1.9658035140434693 14.52126953584385 23.87748489983293 0 0 0
1055 118 1 0 2.75079798618635 15.667109665768685 24.95843896902347 0 0 0
1061 118 2 0 3.618138773136171 14.49936183658873 23.905814729847968 0 0 0
1064 119 1 0 8.093517327787247 15.374613543285815 25.15721869924343 0 0 0
1070 119 2 0 8.783588359642053 14.260562147170628 23.983403903185085 0 0 0
1073 120 1 0 14.060521698644099 15.555510254717735 24.769790914317788 0 0 0
1079 120 2 0 15.096339232036229 14.27881942056683 23.935010717202623 0 0 0
1083 121 1 0 -10.0681567876007 17.879866410194477 22.889713573910434 0 0 0
1042 116 2 0 -9.687494754095095 16.645566083602926 24.10886105729839 0 0 0
1051 117 2 0 -4.195958969546104 16.796357875747063 24.053936301803084 0 0 0
1060 118 2 0 1.7952780795209984 16.827537755908864 23.95118568497451 0 0 0
1106 123 2 0 0.8673798880607562 19.200944221188774 23.99359897505746 0 0 0
1069 119 2 0 7.2453262561997915 16.466968230280564 24.054416620666053 0 0 0
1115 124 2 0 6.0123488168613894 19.337360367813496 24.05516038385985 0 0 0
1078 120 2 0 13.009875045558477 16.717323245088892 23.92213698091325 0 0 0
1087 121 2 0 -12.803272212887606 21.484641379218914 23.84600787758079 0 0 0
1082 121 1 0 -11.742374177445555 20.38474214953554 24.80539453301489 0 0 0
1088 121 2 0 -10.650927410990782 19.16770377209236 24.013069808183694 0 0 0
1096 122 2 0 -6.961435090302509 21.683045260016193 24.045743233279445 0 0 0
1091 122 1 0 -6.145525606291536 20.79939180448654 25.35893837315424 0 0 0
1097 122 2 0 -5.361030704592918 19.804407105512745 24.09787448033824 0 0 0
1105 123 2 0 -1.2693275412142144 21.55334570335882 23.84967261628067 0 0 0
1100 123 1 0 -0.20533617347988997 20.42815589999536 24.77908888040222 0 0 0
1114 124 2 0 4.294428394866061 21.237461562996437 24.051282722479876 0 0 0
1109 124 1 0 5.079661568081138 20.225133068360172 25.31881958360865 0 0 0
1123 125 2 0 9.911778399736992 22.03192655034037 24.13118382696956 0 0 0
1118 125 1 0 10.897480079100152 20.719480099327658 24.882243491775277 0 0 0
1124 125 2 0 11.950950464530365 19.596881706824153 23.93299157799182 0 0 0
909 101 2 0 1.4312043430850974 0.11732416356909514 27.98412141863139 0 0 0
913 102 2 0 0.7774244489038824 0.9857172730754686 25.892668659976927 0 0 0
918 102 2 0 7.291808372227121 0.030800590240469994 28.130658467545814 0 0 0
922 103 2 0 6.548763060357609 0.6467260017496015 26.03056400445299 0 0 0
927 103 2 0 12.95387155968859 -0.1701000924070848 28.17254414649495 0 0 0
931 104 2 0 12.632757613665824 0.8172035362107084 26.141308958978698 0 0 0
928 104 1 0 13.98483362957261 1.029550340721404 27.25956447257134 0 0 0
936 104 2 0 18.470416163666947 0.2175038221115333 28.0421680579133 0 0 0
940 105 2 0 17.77183138390884 0.9408386014475854 25.89810111797874 0 0 0
945 105 2 0 24.17989862467126 -0.14046616077198415 27.994085642824828 0 0 0
904 101 2 0 -4.433402205611062 0.9648219107384408 26.021610262856157 0 0 0
901 101 1 0 -3.108082973041838 1.09573115788533 27.16334877990186 0 0 0
906 101 2 0 -1.9420114111055766 1.429435616168262 25.837034887254504 0 0 0
905 101 2 0 -2.018371745265346 2.311261596460329 27.945930753042447 0 0 0
910 102 1 0 2.359096476727771 1.015827440037631 26.76788981742577 0 0 0
915 102 2 0 3.964500673560793 1.0872748134810961 25.963082068029678 0 0 0
914 102 2 0 3.2738333750207014 1.8373476398032578 28.065212908883503 0 0 0
919 103 1 0 8.092128889811836 1.0243860472787243 26.90927775201198 0 0 0
924 103 2 0 9.646469373076815 1.4220642036314337 26.098157870680843 0 0 0
923 103 2 0 8.950847872259363 2.048742581710372 28.090107448600584 0 0 0
933 104 2 0 15.219575072253395 1.2035165488182589 25.957918689575138 0 0 0
932 104 2 0 15.160520893641507 2.2490314014127533 27.948964359086347 0 0 0
937 105 1 0 19.298319371385585 1.242180327463454 26.867119753448407 0 0 0
942 105 2 0 20.830587416512984 1.5705135353047868 25.997786609309365 0 0 0
941 105 2 0 20.049927710702057 2.312573809184065 28.073960081658797 0 0 0
946 106 1 0 -6.035039551649266 5.841391250756289 27.314106878970378 0 0 0
950 106 2 0 -4.983034060733811 7.113360343663602 28.063230685241415 0 0 0
951 106 2 0 -4.761006571081121 5.88041386466661 26.05975431266416 0 0 0
954 106 2 0 -1.023648438693276 4.759108609554196 28.097069586654484 0 0 0
958 107 2 0 -1.6802063244478713 5.269523404804225 25.952583968984918 0 0 0
955 107 1 0 -0.16992484802501107 5.66419461350338 26.854397860249158 0 0 0
959 107 2 0 0.6785172748233403 6.718522749006234 27.99740103942876 0 0 0
960 107 2 0 1.4107341486463678 5.974891625164095 26.010372435688794 0 0 0
963 107 2 0 4.592144685841553 4.700071813196412 28.067855157861104 0 0 0
964 108 1 0 5.460241899511494 5.6464910089419105 26.837392768245323 0 0 0
967 108 2 0 3.9230380018021895 5.519988665519748 25.919586042559175 0 0 0
968 108 2 0 6.226040193859659 6.544338647893903 28.171726994029278 0 0 0
969 108 2 0 7.093966747353721 5.84168591636215 26.106915333070624 0 0 0
972 108 2 0 9.826082321958125 4.5183624655080585 28.095155093849293 0 0 0
973 109 1 0 10.902064434350365 5.6720137095111225 27.219826687844765 0 0 0
976 109 2 0 9.70786756200243 5.294214199922011 25.945729126745555 0 0 0
977 109 2 0 11.830449527213826 6.9015459912618065 28.114566780139825 0 0 0
978 109 2 0 12.240435937645394 5.746273926763524 26.073318820368122 0 0 0
981 109 2 0 16.11311442865827 4.562338621820277 28.00959199950136 0 0 0
985 110 2 0 15.449788132693115 5.196096227335196 25.95366000821879 0 0 0
982 110 1 0 16.977467729387826 5.579480937187475 26.866496845965372 0 0 0
986 110 2 0 17.812656170291348 6.619466208419472 28.033435200790322 0 0 0
987 110 2 0 18.51635159606066 5.863548956647631 25.98194034304744 0 0 0
990 110 2 0 21.144999060934733 4.6235633456665495 28.102889711399015 0 0 0
949 106 2 0 21.084801495498674 5.559500896552858 25.995242202371145 -1 0 0
1035 115 2 0 -9.506951300069893 9.624877390164613 27.96365937576776 1 0 0
999 111 2 0 -4.113431383476367 10.150824968440311 28.05633798146581 0 0 0
1008 112 2 0 1.7288445371202608 9.726070516614374 28.041696934078743 0 0 0
1017 113 2 0 7.229493707520539 9.455459081143967 27.964002465008868 0 0 0
1026 114 2 0 12.846848818482108 9.999073473361754 28.182354598618716 0 0 0
994 111 2 0 -10.001935312556501 10.821141626521086 26.111282663009675 0 0 0
991 111 1 0 -8.569918366445076 10.903518476364393 27.18240940935152 0 0 0
996 111 2 0 -7.199261011710449 11.19965791608145 26.047052825354804 0 0 0
995 111 2 0 -7.532351316048038 12.170986280704966 28.014169791416833 0 0 0
1003 112 2 0 -4.793540525337783 10.735917166820364 25.985655480442865 0 0 0
1000 112 1 0 -3.234158018350997 11.062286824842651 26.81598752770867 0 0 0
1005 112 2 0 -1.6944024855886317 11.424265182072528 25.931880460617762 0 0 0
1004 112 2 0 -2.4245117242053196 11.908517158971339 28.124946074647234 0 0 0
1009 113 1 0 2.71298084495872 10.88914298913739 27.13686256679373 0 0 0
1012 113 2 0 1.4539145814445895 10.712264117556948 25.907846171243598 0 0 0
1014 113 2 0 4.054411244510296 11.203430916656696 26.01391519140693 0 0 0
1013 113 2 0 3.5298808887553834 12.080122238887427 28.190678568526714 0 0 0
1018 114 1 0 8.143263622871704 10.632397538110208 26.979019826678915 0 0 0
1021 114 2 0 6.557591846865683 10.740383715924825 26.099741414415746 0 0 0
1023 114 2 0 9.6495840412991 10.860768114476205 26.02984878536698 0 0 0
1022 114 2 0 9.093343694957337 11.60453536541591 28.133881756656322 0 0 0
1027 115 1 0 13.689364732225307 10.946837685833096 26.944114554467134 0 0 0
1030 115 2 0 12.190611328171023 10.554050254116305 26.04782354269858 0 0 0
1032 115 2 0 15.227922896002635 11.36890289198957 26.109419404418233 0 0 0
1031 115 2 0 14.509804019661416 11.908943492410948 28.15702857232622 0 0 0
1036 116 1 0 -11.802345288593887 15.647203864765949 27.348045382106385 0 0 0
1041 116 2 0 -10.507207010364304 15.852799848762356 26.15812773902619 0 0 0
1044 116 2 0 -6.58913127023948 14.595659064935916 28.277092129214147 0 0 0
1048 117 2 0 -7.37057958926311 15.162062154755631 26.080085203146588 0 0 0
1045 117 1 0 -5.830702332052133 15.524808041577689 26.944764997696993 0 0 0
1050 117 2 0 -4.265089737321564 15.835216937234488 26.087221587113362 0 0 0
1053 117 2 0 -1.0336753696492655 14.744987119338813 28.151218525272995 0 0 0
1057 118 2 0 -1.7165436587595844 15.364788271487672 25.97479240856395 0 0 0
1054 118 1 0 -0.1756967003199419 15.636049285114922 26.90564318372686 0 0 0
1059 118 2 0 1.4581097727895775 15.900079694790616 26.13375133037571 0 0 0
1062 118 2 0 4.19172560852284 14.543248222552911 28.282303133771144 0 0 0
1063 119 1 0 5.308265153917092 15.612884815022127 27.31761007603278 0 0 0
1066 119 2 0 4.062363039010358 15.279688956755997 26.088886630190025 0 0 0
1068 119 2 0 6.641141747830612 15.708947502939022 26.144677778660522 0 0 0
1071 119 2 0 10.429220694258 14.400576218984657 28.025045209921082 0 0 0
1072 120 1 0 11.204656078411311 15.435402881022899 26.821763906112082 0 0 0
1075 120 2 0 9.684550422409828 14.989833117777874 25.96288482484789 0 0 0
1077 120 2 0 12.814036910081228 15.78442660146937 26.006723115337138 0 0 0
1080 120 2 0 15.406319602728672 14.402151959045863 28.13339614884795 0 0 0
1039 116 2 0 15.293390060384205 15.382747699682017 26.050579657173138 -1 0 0
1040 116 2 0 -10.75195284962706 16.92942516930113 28.104953823067042 0 0 0
1049 117 2 0 -4.965284509293009 16.569491199704807 28.09469028914726 0 0 0
1058 118 2 0 0.613979701026067 16.670908999020778 28.14600694903436 0 0 0
1067 119 2 0 6.245225772943729 16.852621673156207 28.21812603976813 0 0 0
1076 120 2 0 11.956066437280388 16.459892966660426 28.06278980721816 0 0 0
1081 121 1 0 -14.563519470201584 20.560944647345426 26.907760400808186 0 0 0
1085 121 2 0 -13.717448969588979 21.660774186968517 28.00178267141291 0 0 0
1086 121 2 0 -12.948923753892103 20.74589358247387 26.093541659912958 0 0 0
1089 121 2 0 -10.115633594240322 19.338092611396544 28.043997820595905 0 0 0
1090 122 1 0 -9.156740516759275 20.627023140484326 27.1547832887409 0 0 0
1093 122 2 0 -10.393330823964138 20.23599368091315 25.95657688755861 0 0 0
1094 122 2 0 -8.197744783096695 21.651559902466087 28.26144189790194 0 0 0
1095 122 2 0 -7.772346496909022 21.08316425879041 26.121995561231444 0 0 0
1102 123 2 0 -4.603344914066475 20.41942431331196 26.197526201551163 0 0 0
1098 122 2 0 -3.7983757003694594 19.519000554355664 28.095658588807872 0 0 0
1099 123 1 0 -2.965010603462331 20.600155943926538 26.956952701377006 0 0 0
1103 123 2 0 -2.052214252529562 21.854359395968295 27.893848784697752 0 0 0
1104 123 2 0 -1.4608334387448982 20.778939217893495 25.98840855683956 0 0 0
1107 123 2 0 1.2634229753721842 19.119704915549875 28.194747462729005 0 0 0
1108 124 1 0 2.2133267956861333 20.44889486218506 27.352869099956024 0 0 0
1111 124 2 0 1.0662173537417479 20.2058988439063 26.011723194620963 0 0 0
1112 124 2 0 3.291247031133671 21.671799387424098 28.142178626842025 0 0 0
1113 124 2 0 3.4464438321903783 20.505519666182646 26.07810523360515 0 0 0
1116 124 2 0 7.372490063744453 19.318033435644498 28.32724902178014 0 0 0
1117 125 1 0 8.13288055083958 20.260865813372796 27.01287103581383 0 0 0
1120 125 2 0 6.614630771322035 19.9501432394672 26.177054888098397 0 0 0
1121 125 2 0 8.938961003214509 21.345795172387867 28.177898701720537 0 0 0
1122 125 2 0 9.599770324961838 20.759072344006963 26.07480213588333 0 0 0
1084 121 2 0 12.104468056439767 20.381342068149596 26.105271600380362 -1 0 0
1125 125 2 0 12.83121904954892 19.43542647885109 28.01180846141211 0 0 0

Velocities

3 2.5831816558887706 0.10571404769822562 -0.8092021811276034
8 -2.2185778636842595 0.20240492702288482 1.9766345033997461
17 -3.606312581886639 -3.097601810604921 4.210170266990308
12 -3.32612376450421 2.0667347224387456 -1.1899601589084183
20 1.3082370853513212 2.185667520208328 -4.246934235916147
21 -3.011855464981985 4.441619143526198 -1.1589848562775589
26 6.627887759761843 -0.1956680461182049 -2.2613642701202172
29 0.9892158674505465 0.1293436492484651 0.03774585311476127
30 -3.510150693805214 0.667183457556408 -2.362005170971691
35 -6.122054841268811 -6.9336919158882155 0.36695058919655776
38 2.5678080131817644 0.8467935202422013 0.30712555119086526
39 0.3496877001564231 -4.9653896616854 -0.9799829239029236
44 0.07982001170460246 -0.9504101302447513 -1.4296306095900186
2 2.8265043184429333 -1.7596773217918726 1.0848322691358567
7 -2.1078473847079944 2.001720630130381 -4.404517599818701
48 3.959134323824627 -1.4285508720927897 1.6150010530924368
16 -2.9717445807088114 -0.7403424186556582 0.30597859625263785
57 4.510098129092939 -1.7934123590884816 -0.05761477724794579
25 3.0938480319376693 -2.1675742165347183 3.422085737364294
66 -4.856518005293941 2.0778750566347868 -4.183524291496781
75 -2.4432713419483942 -2.2653485481553948 5.055421841697059
34 2.3914173269656995 -3.467471606361593 5.721538475414471
43 -0.04811656458543653 1.822389344841341 4.795179235110425
84 1.8554487037911576 -3.6862489675838783 0.6791260606628587
47 -2.0898694486489964 1.9323405978940384 1.863484174289218
53 1.4875584685570937 0.42925405729862726 3.09759845591453
56 -0.5275833501016118 3.123055399840592 -2.1849547553795787
62 0.6863528622038133 -6.616265723797812 -0.9924193142459653
65 1.5074887877579786 5.930108902073863 2.7352031458377137
70 1.4800864544477328 -3.173067695045844 0.11142824251551064
71 -0.6782428032034834 1.9421353155758934 -2.7959216214973392
74 1.4572407503612321 -0.4545255235896635 -0.059086035383815884
80 1.730808668919943 -1.3223544059936068 -1.3451772210295085
83 -5.574790577607196 2.2080081374267144 -2.474588498471573
89 -0.005799614457332071 1.5392960038745298 -0.07281703499906736
93 -0.007913745137656018 -2.0327301067449044 -0.8632262714943038
52 -5.744159137598635 -0.007851758140810189 3.522126319991433
98 -1.2635889133276628 1.609883690442405 -0.8657889047646676
61 5.499941159478194 -1.6398387275433348 2.3646255382616226
102 2.8726564845667504 0.91911960938496 2.7027684093398463
107 -3.33489764411398 -5.232266514304072 -1.2651479969501274
111 1.5820870958740454 0.02684174413337818 2.237077557829609
116 3.763246486740707 -0.7343246042377851 -2.429178498921768
120 -4.013697347804979 1.9782700420235009 -3.897245268779731
79 7.761424550947638 -3.6378331718929457 -2.4513275931201273
125 1.4355359150815377 -2.553910127631162 1.0291872046508768
88 3.3004677564945104 0.6286581524970387 -1.3455887044044625
129 -0.10661765581046953 -0.1544137866230818 2.0615894016581877
134 1.6224211949131484 -4.3511507965232035 -7.263598196912647
92 2.2209808819997874 0.7005545202289595 2.442356643834441
97 2.469011322708003 -2.528722760354673 -1.4659671163403458
101 -4.431130451801314 1.4002229397235824 -1.5400484463403876
106 -1.8248366603419661 -0.16933796810952773 -3.27941752099557
110 -1.4975514307549016 -0.09207186593057004 -1.3324830597975246
115 -1.6420101191346268 1.4745083368366851 0.9622079258433422
119 -0.6749581131714155 3.7467694821563615 0.9787493132363307
124 -0.09101372697955555 8.91083897593222 2.3817931439310707
128 0.04626751329594697 0.47379874133875516 -1.0593167035547921
133 -0.309055780109132 1.2387983394142033 -0.6680857291115921
138 -0.08452923320320319 1.049507589999329 0.43130652271036535
143 -1.8160040518703595 -2.6445449455520724 -2.6570976208840924
147 2.4244834250806493 0.7254931239435072 -0.16674618373754133
152 -0.07348952863953587 3.2982398567058397 3.4845279968278557
161 -1.256250558349017 0.191828311596053 5.623892415764345
156 -0.2558393172622481 3.7331568673003375 -2.316736886174876
164 -3.4057692783999602 -0.9932461614938679 0.14500440158470485
170 -1.312724905436349 -5.398345501848282 -0.8874479071587953
165 -3.8304872084087527 -4.145683326811391 -0.08749507194636083
179 -3.6301985298116417 -2.2675038323269825 -0.011533898118403562
174 -0.9765835151497999 -1.8121260988772874 -0.5139595180061144
183 1.1106968112594073 -2.620559435102892 -1.8298997667276051
142 -0.5974152514166846 4.257054584526707 3.0395249668609785
188 -0.8809234360809757 0.3460622708171877 1.6573915435921964
192 -1.7686118374327442 5.0888510725734015 2.089726418185089
151 3.443994818226025 -1.463522651631324 -4.271574588692642
160 4.21575777686026 -1.1820472710435135 1.16131826872346
201 -0.6742588723919539 0.5073323555924218 0.24575861380793285
206 -2.0846528518711054 2.2167105204059414 0.4762052805916671
169 6.832170414802133 0.29307810132242773 3.717811823476042
210 -5.497443530934747 0.00950385608698403 -1.0386132890278268
219 -2.786652323760556 3.560925001186922 -6.0963534702065445
178 -2.549219948463272 1.8739105724195833 -0.5121546023569163
224 -1.1163852493695532 1.3777512240858762 -0.9286008435206276
182 3.8401734416564297 3.0960349548182746 -1.1570581803485962
187 1.1272659909068148 -4.484378894024321 0.2719060560616822
191 2.185851482083351 1.2915848030244674 -1.394528428321416
196 -1.335145575566887 -0.8690945454480642 1.6617477074697464
197 0.6346335423671021 -1.746028543516903 -4.360556777040015
205 0.6928019255760883 0.8243055525662029 -2.573034457487465
200 1.4336982917946737 -1.0796739119278067 -5.06336234406316
209 -0.28827855935286856 1.1210075980474274 -2.3512426969936637
214 5.233206219131026 0.450927858438918 -0.771471027092262
215 -3.257875130325484 -1.7725143125396738 -1.5105722127107084
218 1.8398773709428784 -1.131284608796132 -1.6164612594111138
223 -0.2411883779029515 -0.23174311517216414 0.1700241613411287
22 4.503269330249669 2.2479663628875484 -0.3017232982029209
19 4.460916731272021 1.5526220291553068 1.8524823816262757
31 -2.2043229217577105 -3.8857885323109445 6.401882885762652
40 -0.9638687114918573 -0.9179567603377377 -3.9042807006141995
37 -2.102669458930684 1.4514975805897878 1.0717745958296883
4 -5.4373532970756475 1.8510915364190041 -3.4142420557375
1 -1.9969071173510242 1.169494326943072 -3.3093629818298664
6 -0.9085838196470276 -1.0954249582956426 4.292852671106084
13 -1.0471176600711631 -1.8657920824222598 -0.31962784657591936
10 -3.099513875175264 -1.7394950828193594 2.0408979073480995
11 1.8708033658669885 -0.4873728045746646 0.1811403737884621
15 1.6300921221686875 3.157540488140019 1.0917089073375597
24 -1.6812123620587014 -2.5616791669777226 -4.942686349943738
28 -2.2049434325979944 0.7942289347345836 4.563131192632514
33 7.913657390449671 6.947950742734526 5.712827889903276
42 2.421314834899114 5.84705375398021 -2.2570418763052347
46 -2.95111632463291 -0.2433345810947531 -0.7125989232325975
51 3.230255627086589 -6.440699801713835 1.8008242369163103
58 -3.444358539494049 -1.4101872908866537 7.883854190528278
55 1.402506316441863 -2.0166966406473446 2.189352086639424
60 -0.3052578784458345 -2.496514717689626 -0.355174528272093
64 -1.2695529945684205 3.2438451362376575 -1.7049226586150166
67 -0.2041620010010112 -3.5069491981900476 3.1961895729251935
69 -0.9720457704580753 -2.4737456620895055 -0.9202743016050546
73 2.596955162943986 2.0622319051098965 -0.3454234511055119
76 -1.9670315202513198 -1.4856552823636977 5.475309647946184
78 -0.46060877600486644 5.496041218517574 -1.9860663367370908
85 1.488139930120228 2.643304968916038 -4.149172925355892
82 2.2951875517078317 2.359911315061345 -1.3080256325372113
87 -2.8578792544062566 -1.4106532712327642 -2.9319812126932434
49 1.5186134963406674 -3.7923212429278506 -1.6986055926276826
91 -2.9637196378197044 4.2309942032603605 -1.2098143173115516
96 -0.3233464084547522 1.0436143994390215 2.501173309435213
103 -0.8507028365567814 5.541842587632897 -0.7542732856461188
100 0.6336722289200082 2.5285330313711722 -1.127533969156535
105 -4.8945565511513465 4.325485159200402 -3.4765627726519885
109 0.3417330458701658 0.32687668279099497 -0.5892679773500581
112 -2.8876626104622454 -2.787918362437033 3.6125253582099988
114 2.750930964725537 -2.8773000879768706 0.0013651518026092837
118 1.616366504778609 -2.9176861932521576 -1.5682021674303577
121 -0.46073402368700667 -1.8383308046261848 -5.283062016930711
123 -0.6128665822391489 -2.1135260890531913 0.03207335322192214
127 0.29894234106621137 0.13026094102149585 -0.8152244698757445
130 -1.877745362872065 -1.4001098559766663 -1.1840846637202436
132 0.3797940855818209 1.0462352109322215 -0.26715307889277035
94 3.5755780155027344 -0.228212207784789 -2.1975482151936827
136 0.5440860368376983 -0.38459488487974974 -0.884485661735066
137 -3.261889551664995 1.1737896534549397 -1.7770316171102347
148 -1.8422939523781106 1.7415560343163645 1.8450804950156703
145 3.030819844656472 0.1885843660653687 0.5100080997904597
146 5.42265265553676 -0.15768199733241212 -0.6910535793329378
157 1.501346246832435 1.2323985930906614 3.4223367125830535
154 0.7590361103091595 3.9799174489951032 -0.8385684303650064
155 -0.330489061874325 2.310228472107846 -2.7119318261010807
159 1.578539878382138 -4.903909376747992 -3.552454939040475
163 -1.2118137178285304 2.58846398737579 1.068009973650927
166 3.9640107546614995 -2.2707803487553484 -0.5078849393415781
168 -3.5649047558273836 -0.6561926328870199 0.029618890868419057
172 -0.19126977985451765 2.1258747533779974 -2.783545298243195
175 1.9325723164938438 0.9544144942385357 -0.3071625282975908
173 -0.2537301633045995 0.9061236670089475 -0.7408514570387917
177 3.5192324232649392 -7.682841595793132 1.7629404138244371
139 -0.42214439043378466 2.979913176863675 1.8551560563183724
141 -1.3015348935905664 0.8509777230187848 0.19070299326500348
150 -1.0684403917253487 -3.065395099097465 -0.3898526357077216
181 -3.9024772904956615 -0.5322382529399552 1.850161842417836
186 -0.21305268549088724 -0.3705483450789366 -2.6975700368850486
190 -0.16843178202735754 1.7290379716197095 -3.533487366182954
193 0.3003567978242028 1.610317532704669 -4.360764313791381
195 -1.619366709731333 -0.682817861610572 -0.29528284967589685
202 -2.3664554422047765 -1.8429025554764178 4.509723313006897
199 -1.7664563611906554 -0.174000816335393 -1.0221993360456143
204 -1.2197073146252282 -3.4374294744695493 -1.5360709484721786
208 0.6321277535855852 0.7384356770874585 1.7513279390649348
211 3.484728834628971 -1.0257751388629064 -2.231011044235905
213 -3.2828878463435576 2.1347548041245017 4.893945037041278
217 1.9095056263475825 -0.6207912291542022 0.5546910787259091
220 -2.1511091886821885 -1.9022903024646023 0.9426121982057809
222 -2.6518843882003713 -0.860734071194904 -5.8768421417414
184 0.7032846791925921 -0.23719741461081623 -0.7006660405497536
45 0.21301593494242407 0.05876334522635009 2.0096390289635035
9 3.139047726010557 1.9956936904848257 -0.3792420605479733
228 -0.8808437239737443 -4.248868621861982 -0.607688133930665
233 0.1536534266726089 1.3251057985663992 1.2540264501453948
18 -0.399898314805094 0.5382324622871004 -6.581453663926225
242 3.077549949953729 -0.03930812000607275 1.2232758348668615
237 1.1705192095455557 1.0188991064996968 0.6935178126386686
27 -1.2035103031471086 -0.8870704497319426 -2.1279276796000515
246 -0.3997861590917126 1.886594032968186 1.5188904402576404
251 -1.6355340791587383 1.3347690942094443 -0.38561892620450433
36 1.5892227795278608 0.0542809053652673 4.556326929975386
255 -0.9335815825548662 -2.8119505235330635 -1.1064677591960808
260 -2.9169158351687763 -1.3654294239181428 1.1084372342282203
264 0.0739631528384724 2.947243515602105 3.7038254982659886
269 2.4589463832083416 0.17830112061337855 0.489628292789541
5 5.841171479202306 -1.05662579023173 -4.070914850227492
232 2.8134507732490643 6.5698080844830535 -0.9983971769092942
273 4.016221064754713 -1.1561468460331552 2.105811658350243
14 -6.182231279712571 2.829478639417685 3.860534772439594
241 -0.1521347504911067 4.503442591443336 4.155994139679308
282 -2.593911020071922 -1.072780192177551 -0.596043280212375
23 -3.754145505917771 0.8819871166599679 0.6418692632858863
250 2.4481421946827138 -0.11085290188265187 2.7686156168722684
291 -0.8168633387593526 -1.7374542418425307 1.5505214467942483
32 -3.4098969423686265 0.9168088141843395 1.2118236939177969
300 -3.021221920663582 -0.1938336905736471 0.11065618526477529
259 0.8152620396949304 -3.0821853113451456 -1.3898954406219457
41 4.4878842701814685 0.9550149289357426 -0.4648214074197909
268 4.8742477637158315 0.051641300690399364 3.2553732458659845
309 -1.0775597341975043 0.3504627089009946 -0.7052212780955474
50 -0.3732638489344267 2.2231928918093353 -1.2010787970978978
54 6.624558680016599 5.337198571264728 -0.2473392040374254
278 -1.4965149231118529 -1.6362616541906592 0.37936208255282705
59 0.5492092706721637 1.2994240230617697 5.745065365876052
63 -2.2738531465791403 3.3437325229645216 1.805545892696446
287 3.6384114512005588 2.470841774898253 -1.3174102697586527
68 -1.801856111695093 -1.351000669005044 1.2162001896111592
72 4.203362028316623 -0.010473291351126254 0.2222331894331548
296 0.6360038132281999 -2.666387876289524 -0.9163989153608478
77 1.5287398845531452 -1.350057775394031 1.7118779101188795
304 2.262296182586846 -1.5878864223183986 1.7655195686811846
81 -0.2927935455942357 1.52384310890255 -0.018032135923936606
305 -1.5812376632399172 -1.451786967731534 2.878612140458139
86 2.5715261049770493 -0.33058567110298337 -4.602167478472495
90 -0.6032190982078314 3.2863191680781187 -0.02435066719420571
314 0.6509063084584825 3.7062411390345704 2.888603681956979
135 3.1245742051697545 -5.156600362023 -3.574784382959882
99 -1.9786851813688369 -3.5951677617845217 2.888874328081018
318 1.7204859219828803 -3.981191661694708 2.32967890425049
277 -1.5813344069590929 1.7214060911893803 3.6641579072145873
323 0.7609625063909554 2.615437841931322 -4.631519602005123
108 0.8401205430692615 0.43659724602269584 3.100656556106161
286 -0.5018356558538307 1.689562032177116 -1.83088267425348
327 -0.9990398225408844 1.4467622449161246 2.0143556779137652
332 -2.57827449564579 -1.1593172933880531 2.7227671749389954
117 -5.302133859619923 -2.9181662314001175 3.958467111909634
295 -1.0046789510107514 0.7827801610334262 0.9053715527771711
336 1.5990255418038979 0.44279062005938286 4.570429168493951
341 -2.388291425935725 -3.308204896785519 4.02674307505636
126 -3.6256855345604375 2.4923725846216507 0.019470688460248343
345 -0.08124962658371736 2.3271553285396847 1.9581054881510915
350 0.09398983067388812 -1.7616319694851865 1.7370920472122928
313 4.925394652898446 7.3046578943269225 -2.5096676232319455
354 2.9232638947922696 0.7626861439264618 1.305894418369717
359 -1.2154611289075874 3.00579342268788 -5.887091431505374
95 0.18713304970405714 -4.163023800348362 -1.5000098725094066
322 1.0351039100163928 -5.280521079338828 0.13675445461708255
104 2.2366911701968113 -0.22075996529516628 1.5026371863549297
331 2.5717322030152405 0.42857370942855516 1.402143251612222
372 -1.1712527806783275 2.659070180275675 -1.7896247632034588
113 1.280978182232062 2.3059468671106296 1.938994086376378
340 2.216920956877483 -5.572118323650214 3.61438689182224
122 4.5941857672126325 -3.8215412898263312 -0.620518661117946
349 -0.3410131954279932 3.355224235699967 -0.32250731351218154
390 0.3363097579004659 3.2585801266771126 2.155690621216211
131 2.3198599757669895 -1.7091022054536067 1.4975073573662407
358 -0.39578102581226743 -0.2344947257706688 -2.1702396515762863
144 0.6824158919564575 1.433497782163994 -3.3998444193450865
363 -3.0388963442839727 -0.40827820031758405 -2.171665046985487
368 -2.003478517313366 -1.0984821738829187 -6.289796899995776
153 2.5830370298248604 -3.237917858341651 -5.426110078771369
377 2.027029612667223 0.4524967565536125 -0.32799140066701765
162 -0.3162178354350903 5.153946774444064 1.3746110787550412
386 -2.9259223171891544 -0.8632930491083397 -5.182548878100399
381 0.7124459736242428 0.06954541823237986 1.7216346036960206
171 1.5862728965042685 -0.8198726497904117 2.8130664845390294
395 -0.34555980287052984 4.1781008637536186 1.5828957880245016
180 4.905128643892281 1.661399540184742 2.9115071335848395
399 1.071745144117102 0.137729131617972 1.409908774242509
404 -0.7998593966876931 -0.12272231543563739 0.5475850414689204
140 1.505648577729915 3.0734397037562338 1.741481974582437
408 1.4046481738593297 0.25492929759243005 4.648133404735174
367 -3.5651726727391058 2.1506346388504953 -3.3243453241662464
149 1.9796420191690007 0.4008815612051992 -7.452500112730582
417 0.43577061142552503 1.424616766414774 0.3771478353943154
376 1.2969054516266487 -0.9900657952556051 0.5829182689863688
158 -1.4290486003805718 0.7373548392556217 2.3928353113222176
385 3.869748810179366 4.000329346337832 -1.9121535804274998
426 1.0975195790927932 0.6739272337920441 -2.0940614162711206
167 2.3251194454386463 5.572774808871936 1.5772191113425962
394 -0.1822929187221414 2.3693634620269286 -1.3550605452348572
435 4.109928516857492 1.2635089967607784 -0.4891710742849244
176 0.989431533008017 0.1946890985997494 -3.431440489519666
444 1.1455965342335936 -2.021734584066627 1.2580943881144606
403 1.721230793652385 -0.7208996754566551 4.471941849107198
449 1.5178432351350855 -0.2783085918222538 -0.202234277988461
185 2.840555871278117 -1.484523861686998 -2.2757133740375393
412 -0.7979863232249977 -2.4584242522343716 1.8081380919877164
189 0.3186616046679411 -2.5295700092082876 -4.167888853351389
413 0.41965175529090554 0.9587308155031417 2.6142376434426065
194 0.21592611673362908 -1.923968059911314 0.9029429564190922
421 3.0928371235611762 1.6532868127618057 -1.5130645591572143
198 5.043917736808853 1.1467576977916472 1.586522210244814
422 -2.5821992781039294 1.0788919085975726 -1.0845738965692688
203 0.7137251722450978 2.179522294151238 1.820135786313528
430 0.5309997467861239 2.6473882890244704 6.084705849822717
207 0.9211874371790824 1.7676658598252886 -0.26009162434064864
431 -4.593134679169742 0.7331823944654713 1.5215388571533262
212 2.4171103224013266 -2.769669849467555 1.6345442474413083
439 3.545775657796516 1.5335715780229233 -3.393767604043104
216 6.107577312871605 1.3265524733119534 3.7450897615138996
440 -1.8263974257189182 0.05801351547722728 4.547505815906494
221 -1.4791568468775365 -3.9485887106463196 0.15713066645230855
448 0.2715984498042883 3.1871957860867473 3.106641763542385
225 -6.123141801810627 -3.0864186005726637 0.521540609962549
238 3.625332918920272 4.843373525662143 1.8223564416458753
245 2.827002658257987 -1.1137448864413164 -3.931964369675979
256 1.6285028415580443 -2.5739118601864193 1.353563552533033
265 -3.352653407092 2.4002150164752667 1.7135406134215523
263 0.1425412977982814 -0.6277260603720924 0.6726277374683468
229 -3.8682731134913046 1.0369157094406907 0.23337373120012495
226 -0.9120158427561712 0.5580199829980493 1.124637384064545
231 -1.331281722666534 1.514354476924854 -1.1446008245955142
227 -4.813050910944835 0.08750827526597632 4.14291579823173
235 -0.4423365223815761 -0.11216437071380916 0.4423905459396779
236 -2.0304574280974785 -0.9863902346179436 -0.24029049707272193
240 4.207819732582641 -3.4621387052045245 -0.8899812757469385
247 1.7527247013528837 2.270660156274271 -2.5689890131085966
244 -1.0040228685216532 -1.9436145343932774 0.03608353883190762
249 0.2002095517026502 -1.6094877688180973 -2.8949941974291464
253 -3.0336833969427084 -4.8730062813437245 -0.7389440686898092
258 -1.2628510823512795 -1.2332979097299381 0.7311636500742704
254 1.7743124843484566 -0.5361415996312532 -2.33847871503743
262 0.8531659031954767 -3.2851955469092076 0.20023429231267753
267 -0.3572750975897892 1.9243055941065836 -1.1295552810016183
271 -2.036343672072561 -1.0673665750086263 7.439853378528858
276 -3.1816726452065445 1.6277811200000654 0.5658768326522924
272 -1.8166400417498187 1.1595380893579 -0.917542838417711
283 3.4492335895526747 -2.8965207242796844 1.370650200510578
280 0.8008784875521465 -0.5993169532427063 1.2824907697023926
281 -2.084805278044709 1.0948844323189344 1.5193462207218043
285 -3.6488450376288415 -3.1310163487158302 0.5462209601846257
292 0.4092864896070961 -2.0987798696971365 -1.5473216934178218
289 2.892724154255026 -0.34879473567203434 1.20893796488424
290 0.39032852882676716 -1.6148569718199541 0.23847381405393345
294 3.3780274357217337 1.7427424610536684 -0.9559605332167362
301 -0.5770612713810597 2.4867977249927957 2.957600408677582
298 3.48056301108116 0.45886675143266187 2.0861076518813837
299 -0.3235094103314669 2.2767067652128143 -2.741352818173564
303 -4.193896544836739 -3.4865558846181175 1.834751388009144
310 4.933683111429685 3.2129773194441733 -1.494430486790205
307 -4.056483774832437 -1.4046980321420568 1.1878186437263425
312 -0.895774292493988 2.467181129354189 -0.19127353403127084
308 -3.820444291129226 -0.5578858334941513 2.8020215813843077
274 3.3346234122977383 -2.235330938157074 -0.49066310048771816
316 -0.6487956820088457 0.1579669592036495 4.192361859453439
321 -3.9439659670571063 2.7641652364027296 5.153149309299958
317 -1.1070782060555748 1.0579108741946655 3.3684905574740216
328 -1.5243445082408225 5.997162696658835 1.7132410199930252
325 1.7975610970971712 -0.736361580896423 -1.5993502258415957
330 3.6680629203180466 -0.15612918703807488 -2.433913307797452
326 1.9286117866229353 -1.7553917740034213 0.9234832200906735
337 -1.1250240635297568 0.28147735510612854 -0.05652715770810832
334 -0.6596917330815341 -1.9235005795920985 0.16190313397260533
335 -0.8401185628517301 2.3638833132083827 0.18390776176518148
339 1.8813828447178822 -1.7425148138762867 5.425075623572965
346 3.3848956171103763 -4.4213505902624055 -2.2306654344389996
343 0.6203816424094518 0.7306479872815651 -2.0125043361244477
344 -2.8220254053003813 0.8642315268374703 -1.013473596990012
348 7.012906615663323 -1.377919631612761 -1.204406176699691
355 -3.377405238778022 -2.799876227776185 3.409104081007158
352 -1.373266592719105 -1.197145847421872 1.9162521077929717
357 -2.0697418959291056 1.7209500546297791 -2.297368596386875
353 0.8013974710006673 -4.161645025916972 3.489696498604204
319 2.0566747849253284 -1.7104383797892773 -0.040053790702822535
361 2.5917754262693826 -2.81820475028398 4.75091221886179
366 -0.9928063150386269 1.409130727966627 -0.7382155763042162
362 1.465832524749899 0.10036090098019407 -0.6540828866344315
373 -1.3181966491800676 0.688630386327144 -0.45819636262966074
370 4.895457548991169 -1.4882010075708771 -1.2311606669306998
375 3.096050184026014 3.599101522916895 -3.126583548212439
371 -2.0985801606077388 2.3381682543243105 -2.418312233359906
382 0.6223583072148874 1.2662600894529024 -0.6880085488826131
379 0.48295728501226537 -0.6076069041231715 -1.0412653070316655
384 1.254885401025528 0.9968240367211415 0.22054178484346837
380 0.7949560175106075 -2.3404156188872465 -2.681574708054018
391 1.6158149397337425 -1.8046722628665233 -0.1744194932882257
388 0.13946267021851155 0.09735374410330486 0.5041791432515601
393 -2.1131064088065 -4.317510181676474 -2.3143422040401984
389 -0.12344230045013 1.1108202937213139 -1.0868469256569466
400 5.440991393601115 -2.2595054211061316 3.8904844650636803
397 2.5471125180306293 0.4179582296890853 -0.8974229807644079
402 0.21547529173948227 -2.254682560613311 0.6441993217228836
398 -2.2124296580019083 -0.5778505643388157 -0.9467739813181768
364 2.2540809203215555 4.156675582884166 5.0865584419787195
406 -1.0184176922777848 2.9344513541903408 0.40644743378758597
407 0.5950705450373736 0.5634374385074421 0.7026079354700223
411 -2.784257070040372 -0.6530243538489883 -2.701780281929728
418 -0.5079267562621342 -0.5361806892577048 2.9036730829650907
415 0.8271472262490875 2.631264018121353 -0.546050776135027
420 -4.5678536642935486 -1.4712622037848657 3.2001580396978575
416 -1.0545854040090585 0.8298890857946917 0.6551225558436148
427 -1.3872270285637667 -0.4903305876997043 0.7159345526840529
424 -0.6129546031428345 -0.5632003873350506 0.35508274942558865
429 -0.6045738309848998 -3.418368573369596 -5.962146306223159
425 0.7361260126397129 -0.06801200898562705 -0.17495197525787098
436 2.4198448390271072 1.7679437782886822 0.5842159941761769
433 1.5819387343566118 0.8562460186538947 3.2601518723840157
434 -1.0117974150141946 0.8172763692027216 -1.1847711965151764
438 3.0872862854541583 1.4906960946071783 2.081685691227795
445 -1.974103865168141 3.0257917469048183 0.8421970628316013
442 0.8587884817868521 0.2653086726647443 0.21931101586528273
443 -0.7141516371472493 3.2986605554908905 -1.5177749134313305
447 -1.1996976409896145 2.2267054518423586 1.6572889639172004
409 -3.9198330709977363 5.456265719990694 -4.291187820624449
234 5.368654433134924 1.0004645493500643 2.612538768464109
453 0.0497628757790074 -1.3149748753461252 -1.038803880124064
243 3.3086319851872377 -2.0354729814589216 1.9719505746577948
462 -2.4340036699858882 1.6938309169748358 0.7620497646942052
471 -0.8471509631164408 1.7759347204946891 1.187182038517767
252 -1.7833528681279724 4.792790070530089 1.9363857166236786
261 3.720025447620728 1.9866947229211167 -2.4320001309060015
480 1.1096333481874299 3.2257637083577584 0.1334118871634169
270 -1.656764078812075 -2.6916971060118207 -1.4484817773022063
489 3.668019164644757 1.128640325411782 3.4680952624866386
230 1.802367512077049 3.9139885734750113 -2.985072535773064
498 2.396991682147027 -0.7507758028348717 -0.5137055534758839
239 3.455076239618946 4.128548738846246 -0.9999390164392373
507 -1.7171859985787443 -0.46828402355334015 -1.067087748356827
466 0.44252449545989764 -0.7338939362393012 -0.11280875657450394
248 -1.4689075410342693 0.05191605065111798 -1.2339487371803533
516 -0.8300538861722897 -0.4605679707134169 -1.9146005348201205
257 1.5680078109224427 0.2826208386490292 3.95132731514952
525 -6.296184492974441 1.1819513298480235 -3.86108761025202
266 1.684963548973811 -1.3482324686239358 0.8029358444211329
534 0.9325131441055972 -1.6998731923116026 -3.0182232289901973
275 2.785615289614422 1.857639554857907 -3.0657607897662187
279 -3.4730792158684114 -1.3550521855366233 4.174298322996775
284 2.773072916629803 0.4138156574739071 -3.1554306146340125
511 -5.915621137308762 3.715140277223723 -0.18869005734461497
288 -4.306457391200054 -6.508045679462764 -5.3623864998670525
512 0.3375575058561169 1.173242165024342 4.05667641759797
293 -2.4453738590304894 1.681303570107658 3.18130427265848
297 -2.4946359633299355 0.028038006418673263 6.02823284842215
302 0.29330160867205096 0.7222554519361153 3.7838539333980883
306 -0.012175268327958929 1.7172795805954868 3.7711627879198404
311 1.017693323414796 -5.0688631350492805 -7.592108660336379
315 0.2038323932999819 0.21380254057302017 -1.92289981654319
543 4.0107339949760625 -0.9555386909397535 1.7611796887343238
324 1.6149021081617296 -2.128583005125933 -2.5172352775051223
552 -0.7501699230444979 0.5495987957134721 4.027567242688042
333 3.1379156628756077 2.8082867210656053 0.2587766603656774
557 -2.7849124828373077 0.8147143735692848 -1.588095526072431
561 -2.1101706769215607 -0.15343526794636766 2.0041393010234168
342 0.20218384668865547 4.801497061221319 -1.5763198117866708
570 -0.540223905274069 -1.1348226731465099 0.13733728436156278
351 2.647302739800971 -4.231448049129193 -3.3255613878235692
579 0.25435744915111663 -3.2829957358905713 3.1361455165141665
360 -1.2789074127407116 -2.0894737308487388 1.0248989568542846
320 1.930545754794167 2.179114206649999 -1.0382188047014986
329 -1.3817945015737094 1.798866194338384 6.764676592888491
338 2.091635374280998 -4.025747939333865 4.62146057625164
347 5.420363396748686 -3.7954384267871117 -1.2902708875877105
356 0.26778753513636916 -0.8771410051198474 -3.016763017838627
405 1.3592487523379893 3.958746027723654 -4.703016679160448
588 0.7022616796807474 -0.5795279856057356 0.49202263834458054
369 3.4808065478217887 -5.686986928101674 3.673904827638167
378 -1.6441666675349917 3.960839923308868 1.4681784236776687
597 -0.9192399784356018 1.4059883818413645 1.0263698818564135
602 -2.5230344825513087 -1.3644737534785412 -1.5867323913098268
387 -0.23444799203697497 -4.671190611170674 0.522731519313697
606 1.0194523149593453 1.9869269126415778 1.3672694693371805
396 -4.817832380242949 0.14367489831910396 -0.8295307986192513
615 -1.854750894112012 1.0930333533092105 0.8884683834010769
624 -2.8980689476590835 -3.241601723186909 -0.05225251304334345
365 -5.849182100450513 -0.28404138753974884 1.7320179682247423
633 1.934100334601204 0.25451995698273805 1.63750349692797
374 -0.9815132685010061 0.4687334048569929 3.392204923724862
642 -0.6496650114425738 1.6964029783410959 1.6857187803951283
383 -0.7833611953375578 2.6638606923045183 1.8827415345610383
651 1.0345026583248396 -0.9722980346769903 -0.7727255377225715
610 -4.198986827520914 0.145711053417998 2.317227807630404
392 4.722463689351395 3.6646679704187894 -1.9848686098499502
660 2.2117020545382857 1.8088866502198806 -1.7388697523752377
401 2.6565823679127205 -1.8339503738225023 -3.6194000386802303
669 2.013114864362773 0.1453952559609249 0.7105978336623203
450 -3.364724439100534 1.3201680532744404 -0.9551192322668246
410 0.9100977812681574 -2.087351920943239 3.2482443753755548
414 1.8554952301547047 -3.72114364196715 4.373859096618025
419 0.030241086435223604 -2.5364323583950887 1.7445149747061146
423 3.688305604321025 4.622177747003457 -1.65708788384614
428 0.9523618475023786 -2.4345092181575114 -1.1260156208668761
432 1.4457252009384423 4.829845654136894 1.9787204959707947
656 3.112741979715809 -3.1405120614875894 2.0960302432827116
437 2.463724867202133 0.4506195693964616 -0.6568757983702784
441 -4.562797917126607 0.2161925256356903 -1.963638054221336
446 -4.109170167314128 -1.4255890660057728 -1.3256564842759404
458 -1.189495735554161 -2.2296776806206076 2.0219861008078266
463 -2.9403702869138533 -2.4819740963381483 -0.8853383208237238
467 -3.606217643027868 1.691928417883169 0.9320615859892272
476 -1.0451707013326896 1.0657960628792515 -2.7272974323433945
481 2.186735066605372 -0.36178805117279683 3.790931031084972
485 -0.7140619076701459 -2.7319087296831555 -3.7235896494034604
490 -1.127332377063728 -0.09511718418899895 -1.0321562694102049
494 4.544471152691063 -0.7721255650495684 -0.800948702720142
454 5.199485215510688 -3.425825104720064 -4.53076244347972
456 -1.6488495946606836 -1.0422095215892242 -3.4152335245846452
452 -2.7577473507303023 1.3437912581526905 0.2831468244021847
457 0.74581314660714 -3.1490924696539166 -1.1460039853772528
461 -2.4096953131682954 -2.282399275120289 -2.3989879328175485
465 -1.8346170803737905 -1.8013504191457141 -2.4718424030185537
472 -2.2258640757648327 -0.47976831225324595 2.839714288935645
470 0.3782616493222255 -3.0924565068125305 -0.8910054619561375
474 -2.4025631474606017 -2.411809887849829 0.68848823240027
475 6.239482552588336 -2.9700247652722482 2.2198276137700534
483 1.9693022793625934 0.3751848594097592 -2.348176812472624
479 2.6954258609661856 -5.316717356430507 1.6679364931080842
484 -2.644565849923903 -1.3174836535487002 -1.4426510509492776
492 1.1349979521833236 -0.23553027880011868 -4.443721465160958
488 -0.5886700928118309 -2.879450513201373 4.146812209092289
493 -3.5638118383455026 1.5103760519734608 5.329762278147692
501 2.235856160323907 -0.8627053357995813 -0.12407484961152195
497 2.471004107140649 -1.6216552084872509 1.0750060160599741
503 -4.0656010549509976 1.5164512818375722 -4.701597370135384
508 1.166647871238745 1.4514433173469103 -5.709891402280133
506 0.5347485700205347 1.0333572954110755 1.2436276006184772
510 2.82272596687079 0.7809255441719934 0.30851008843109384
517 -2.0606609776692597 -2.6007172174464426 -0.4814294870553539
515 2.8642780111352524 2.4875879261362304 -0.027353752961104493
519 1.9927411681749712 1.0519458558900914 -1.0833564558096092
520 -0.06716406251275298 0.5479941322159445 -2.2216649178862347
521 0.03989816354969739 -1.8596428336711748 -0.6880725863310486
526 -1.5805579308724877 -1.065511363698787 -2.9659929935455454
524 -0.07916147796316 0.791745107162138 -1.5775841057152473
528 0.04060050187278991 -0.4466408835416579 -2.735572889860215
530 0.919313549922512 0.21691858612660195 1.5355524473208801
535 -2.2584265364081664 2.4038380391542473 -3.624426024955292
537 -5.053187309377242 -1.641405992957524 -0.6689464484082418
533 -3.300440243320807 2.276119759412506 1.1018023764113096
539 1.022957511244608 1.2572818593078985 -2.4221328358581404
499 -2.584543729267146 3.001556069968956 -2.6848042486238444
502 -0.422675575411756 -5.455850366858668 0.5577342080727787
548 2.446573645198444 4.895788435104362 5.148733124394981
566 -2.5862085734037907 -0.7489658771263279 -0.21730225447318208
529 1.0953173810740195 1.7943625003793204 5.6772790480906625
575 -0.3562246332039401 6.089800369148003 -1.6983833968707633
538 -3.4493988341024715 -0.013586725058808586 -3.3312201101761696
584 -1.4580817312012668 2.8425483706066577 -1.9865692301177498
546 -2.408192890502818 -3.7810186873864366 -0.3521515897578511
542 1.9029368911905236 -1.0283219080149668 0.10413467283567905
547 0.6137875379701543 -1.1459298499217239 5.194255928366486
553 3.003349223743466 -1.5985982059554362 -2.997522652377182
555 -0.7455636587161644 2.105494101771754 -1.107781647305305
551 0.36734351112715 0.7989687146522424 -2.5741122577935474
556 -1.4434617308116302 4.1717655324764085 -1.8836542197464934
562 -0.8960758463488131 -3.7317667093956115 -6.907989052930067
559 -0.7150656806379699 4.548863188517283 3.7057357842802316
560 -1.532274580083342 0.8629378556152872 0.3465169296986252
564 2.2301836329160456 1.6801733885244423 -0.741695718565246
565 -0.9611568758972443 -0.5553196811725432 -1.4425942710012207
571 0.15043130211275138 -3.0394203702729863 -2.8131831649662096
569 2.7839762234556846 -3.0193334013637085 -3.144379494719819
573 0.6662988271459084 -0.19897985504714408 -0.5419071480022393
574 2.6145518396576475 -1.7337068525688846 2.2648121369949172
580 2.96516473146559 -4.190108688592096 -1.4798161221327588
582 4.797759727106081 1.640631411593236 2.002157239255406
578 -0.6828973628505977 -2.1383282520285336 4.438143675017612
583 -0.11777846548743018 0.522098440526783 -0.7966579358041641
544 -0.5365171301540332 -4.15431075081127 3.6128727302953174
591 -0.6022015659177756 -0.2354204669568382 3.736642024057423
587 1.8452856064739729 -2.315521044784009 -0.5597985644051223
593 1.7267482090741766 3.4455897898920753 4.713961343126318
598 -0.024819130900358043 3.1349151069031214 -4.325514593161561
600 4.166562394739876 -1.3496718381079555 6.654825872786581
596 0.4226613237685797 0.9834214160882424 0.48971305304984125
607 0.571672790359532 -1.2321329363007354 -4.720596778119302
609 -0.5364964076773591 1.2046559486113337 2.7918069724144394
605 -1.9595036731069106 -1.0518649912960103 1.1426114484928347
611 5.442465667209599 4.970559299166777 0.9840542516784792
616 -2.973030450097557 1.0041541212565508 -2.170184787623915
618 2.073797506624444 -1.103865270271182 0.3989736748377881
614 -0.033380798621222216 3.945995703418504 -3.0904519539236293
620 -0.5267613243076585 0.27351226749828755 -0.14889939803891533
625 -1.5718034541905803 0.09499741136957367 1.8943404425070267
627 2.047139797514255 3.3588050642145744 0.9064206731309424
623 0.8190295818412917 2.816595876296606 0.41723868064730524
629 -5.790579569135724 -2.7599712617158203 3.1318509318247765
589 2.6902873517228634 -1.9792747034925204 -1.9097435636306823
592 3.2032181417527665 -0.4747021532084817 1.140177547490106
601 1.7361451558179177 -1.0442265599347746 2.763888525578384
619 -2.442214048207157 -0.7027315841062036 -2.648724802772887
628 1.6213591982180924 -1.9847934603055954 3.528775639850085
674 -3.453162872230385 2.137159185606676 3.2257209455476508
632 -4.671484118435125 -0.6735060178773269 3.0972210017511856
636 0.6518378426376971 1.9636892067776528 -0.08402072205423779
637 -1.7936239665835294 -1.0756422107114532 0.09166511459835369
638 2.151407690836149 1.5571493964622796 -3.1462941716708976
643 3.1524447536363516 1.984799585526647 1.6184516159866107
645 -0.6909736206771586 0.8596741722050367 -4.309642529349151
641 -1.4615789417411285 2.009498218539819 -1.0663796330325548
646 -3.7576663721173684 1.890941894610725 -2.216679902333952
647 -0.12967077285582895 -1.242658364081603 1.3848882204878243
652 -7.744252472396686 0.29857957654053296 -3.070482825646125
654 -2.1627910222122173 -2.97790322853184 -1.49381315276847
655 0.2590061074964248 0.4853563842380815 -3.23546031813051
650 1.0909714385363525 -2.779487834001223 0.36023500499040856
661 -1.6269662213905471 -2.4626035222935934 2.0321513244719323
659 -0.7546027879304036 -2.262797157404347 -2.4086254564043674
663 -0.39332298889861256 1.7596719135987802 -0.3255451959339973
664 2.842678658587622 0.7820589367819167 -0.6834268644303118
665 -2.3660401130607647 -0.5205007318507983 -0.4648881672252803
670 0.47559312100994 -0.7324251451590537 -0.8286968385547778
668 3.2185707765690026 -1.9936755203398429 -1.6626101101001947
672 -2.521571946955235 -0.6166666944356748 2.275528804957743
673 -3.77620425954907 -1.4495967381182642 -6.234456113784304
634 -3.6244970877932388 0.5394323859159764 3.1594776787466055
459 -0.9969276562692918 -1.1850000917584989 -2.6990041418777
678 -2.7010935927313757 -0.6152842230271085 3.384998562905771
468 -3.1595666985039927 -2.9885447379441157 0.31824711288079965
687 0.9195064945018185 -0.5805078124725773 2.5253352747206024
696 -0.8156319418163253 -0.21223793436457988 1.2229898224576563
477 -3.0282088930394737 -4.863785103664474 1.9838028574400957
486 0.8500233579869118 -8.073945968129168 0.5387980592089461
705 2.5882355360360805 -1.070186868332718 -3.6261282429583868
495 2.286025307077363 3.146376567404252 1.7502094798894694
714 -2.8493905763404577 0.8385978893466622 1.3474228418486942
451 -0.8881902967617827 -0.5415213374699773 -1.6403598994135533
455 3.4705494305191524 -0.19172194187510738 0.7059555069257633
723 -0.4265459886334942 -1.310320267771248 -2.4274802742370287
460 -1.4519571763849197 -2.518249129970341 0.9019676253312298
464 -0.5313975146064632 1.2716870356538075 2.868737355542659
732 1.8120815229562037 3.4582525795272945 -0.3626777758187081
469 0.7114138688399319 1.500197917517616 0.16886230222481974
473 3.116224036121257 -0.5376667239128763 -0.8110324474350635
741 -0.9101481014623504 0.8007936814555121 -0.2138843392166238
478 0.9189510684702387 -0.6459093654931832 0.26750033019826014
482 -1.56784091964234 2.2786551401727237 -2.1654851131876476
750 1.0470229151673645 0.3443977985096588 -0.29599707444584605
487 2.7827932619822837 4.278139866624479 -3.9448573995806426
491 -3.786378551128625 -0.28904960178824657 1.2417614191476105
759 0.411238553367911 0.9303367579125066 -2.507783430763966
496 0.9760231697526368 1.8584560103849503 1.537410878787345
500 -0.23591500947538852 -2.0981008628835935 -0.08554385369473926
504 -3.195134758725084 -3.963616496871597 -0.09966186288955212
505 1.7757164972022697 -2.172318948061245 -1.0500877009943572
509 -3.0791214440370602 1.2783884964888779 1.9233578410233485
513 2.2415838769659793 -1.4084900971892458 0.38308532906189946
514 -1.031996521875325 6.191951513902068 2.341771651903235
518 -2.8184128493972307 2.645484682374112 -0.28375910822510764
522 -4.576359101903091 4.173548927475778 -4.5208015925335445
523 2.6872037911141784 -0.43311753506554246 2.549441695605451
531 3.971056219429115 0.3725455643889262 -1.497288770510001
532 1.2904853135102365 0.6244891658321409 -0.3284762022941348
536 -2.279138151237641 -1.7605020503387663 -2.122933098591695
540 -0.8048255145241555 -0.9980929439881507 3.295915777409504
768 -3.228400111894071 1.9657333471288487 -3.4957765242100995
549 2.033514514344298 -1.7416617792639932 1.967549313394673
777 -1.6629281785701333 -1.9670696350344599 -2.4750377182168553
558 1.3955478688704512 2.012332787507973 -0.04192581782490077
786 -3.246017312929662 1.8445993644896077 -2.671202597990934
567 -2.801924332029506 5.178101560251291 -4.903036063999084
527 -6.489185636513541 -0.7961111297298582 -1.9090178704202725
795 0.5657806833652106 1.754734505811456 -2.7164060633798655
576 1.7997038537625165 -5.424103677012113 -0.2799925166464293
804 -1.776737226900462 4.384226783463233 0.3292658596023748
585 0.6926210549104531 -0.48889899390547875 -1.2043518709869476
541 -0.7823694011126793 -0.09361241934506123 -2.016435026011709
545 2.00611980097291 -0.33228739129567336 1.9025389347612374
550 2.930772066531466 1.5399314725565751 -1.6800403516439637
554 -0.32623913071443494 3.153705888483632 -5.0968557725929475
563 -2.8988132293401003 -1.9864411282437529 -0.7686497478137663
831 -1.9384427538522804 0.8663037111547545 1.4270729694690267
568 2.9821043788354498 -1.415484648425995 3.6009779992689395
572 -4.993633933151995 1.3913254019093677 2.2002016526553647
840 -1.5415025565851836 0.6910871700592645 -0.7966434395457231
577 -0.6225193527119143 6.777662220335545 2.6993582110882275
581 1.1873712368743246 3.1920458887503287 -0.4227653586862877
586 0.8597532565156013 3.647980536202497 -1.738650667190517
813 -0.25281364361904013 3.0151726085551753 -0.12940125894241028
594 -0.8087987528026795 -1.224442746979313 -1.3874715145473888
595 3.287314642507036 1.5773922082606597 1.8006101942435928
603 -1.5174900658248962 1.749296596185107 -4.966392223049437
822 -1.547157082875377 0.8446066680424383 -0.6463961845104623
604 6.095143484477884 0.0384234686705926 3.3922483385142512
612 -2.744419168456417 -2.5130403605200193 5.515379102294163
613 2.2728148650786 -4.863740959155278 1.3306458955625204
621 3.43409485415385 -3.9761084263354527 5.64519102237113
622 0.7156968540484069 -0.3011735444782687 0.042352058527801294
849 1.2794783651542359 -3.4194086662893266 -0.2999145188287671
630 0.0556217649199656 4.442755194151204 3.5339649727318196
590 0.7354640022253195 0.5102727638702839 2.069247983306095
858 3.644955601786667 0.9466056270483887 0.5796774764384531
599 0.6840613963142854 -2.759411432264092 1.9425913752059136
867 0.7835020395699386 -0.9885617707293426 0.039876607185158695
608 0.8178566855484678 3.4625958233141385 1.4575591505186578
876 0.045472471646826856 0.0010949530359461157 1.2050858774219528
617 -0.3226288462039592 -1.1421601282654748 0.7015600746871271
885 3.1022769216129435 -0.284977051662215 -4.285524584683779
626 -0.8158189347055852 -1.313530142801118 -1.3684887836580137
894 0.5153248342422246 -3.8626402726657565 -1.4773143275970313
675 3.8312942757793227 -1.2090267404511115 0.6790002389963797
631 -3.9592541752240415 -0.4630109891079823 0.2809613838056456
635 -0.9647376781326359 -3.240956850418006 -3.213333651557024
639 0.3105945348734311 0.0007275644077463181 -2.650446539920575
640 -0.5760205594978998 0.6871611918647924 0.047734862290341275
644 -0.24850913992958218 2.6756309756839762 -3.475636602568041
648 -5.428643073696224 0.6225743890018773 -0.6285887332660212
649 -1.3227566457239122 -1.5088500287355358 -2.470627888633829
653 4.026022696812628 -3.9731104909168407 0.9802287332371553
657 -1.7495054943160735 2.450118065218824 -0.4104116454193049
658 -2.447044516245623 5.04927701535065 -1.1955320730137173
662 -3.50313529792048 1.0816715319665995 3.833163524189349
666 -7.01286989984452 0.699429526454256 -7.343867971873538
667 2.923537064357383 -0.8756877993940331 0.9447728165534901
671 0.38483318688688867 0.5525237987480391 -2.0446147118573665
683 -5.995759353009144 -0.4396324119763365 -1.885075341856995
688 0.9107905243422781 1.833944673176969 1.187937645540273
686 -1.5415657298478536 0.6877321197822704 -0.12325823094809739
692 3.885840141495774 -0.5903025352683806 1.86949063846036
697 -4.367795167325524 6.832490137445929 -3.677582761793766
695 -1.6027334943658254 -3.213956093471357 0.7046952736865837
701 -4.709690642841932 4.54704235571299 2.6080960187691247
706 -2.5112025751809144 -1.3621112656422796 -0.6828086126135193
710 -1.8825438453811836 -3.130964240376761 -0.2724089587978637
715 0.8432880467021882 4.909982293781628 -0.4740504099448522
719 -0.802680722132114 2.3512488295537968 0.7866234415488185
682 -2.5452124797979163 -1.7071875827726812 1.02497128668549
681 -0.6402665052888181 -0.3596253757689018 -0.5439482633278655
677 2.098067150024696 0.2056023968567759 -0.6554933456836316
691 -0.074182311340003 4.87692272648912 -2.241350693784727
690 -1.5996453492990308 -4.568527731152492 2.17192996816367
700 -0.9151013309696362 -1.9127777406268591 3.5037908028688007
699 0.6083169171879941 1.8484746651235013 -1.2890610817242123
709 -2.2698465881665872 -2.459788319579373 1.4186403004543648
708 -1.4205364326256666 0.9915555816013358 4.276317494766621
704 -2.048681472413939 -0.351083794153 0.7756170608994716
718 -2.903884976424501 -0.2794733517087001 -2.8499102481075584
717 -2.6082008837126356 2.6285258838343553 3.2289436553093234
713 2.992717629810554 -1.6844790834510202 0.771218328194839
726 -4.916915547571169 1.2047207537545095 -2.558552663140145
722 -5.154443580567921 1.8176223776095293 0.3927118188709032
727 -5.64299116972491 1.5565813147356462 -1.0936374624291092
728 2.142251225092228 -1.6728188341690604 2.0942090995665925
733 5.436214979534219 3.144170771737995 -0.26361610234108096
731 0.9728090005419473 3.118492325150626 -0.5612755663705378
735 -3.3355243337492575 -3.0522307354665807 -3.252661992218996
737 -0.6812213073254377 0.3759868666153824 0.23215302388504844
742 -3.887418047518044 2.2062973628909295 -1.5225809849281193
740 -3.811300212910419 0.19561093876616492 0.25375239293917734
744 -2.4417231025258213 -1.353546523268701 2.440659170818476
745 -0.7141651263143414 2.885061515665874 1.764780741824537
746 -0.6556165173893921 -2.6264584248710108 -8.366546538635788
749 -3.377779004376935 -4.744954983120399 0.6930362773824936
755 1.4571404775421724 -4.264365509065121 0.2267585778872811
760 0.5289117764726021 -0.15583582609666569 -2.3447609757509293
758 1.3775394649917123 1.5091184881061377 0.15328874474850737
764 -5.04656583755887 -2.1376211546878836 -3.1819156455015145
724 3.2553373054882995 -3.242747567168633 1.4014921975648047
773 2.454264002091631 -0.3137906204362619 -3.2273188497644183
736 0.030808700150896758 1.7873954701956571 1.524872665382054
782 -2.5860799668655785 2.352864194950617 0.8998972112583131
791 4.110896947043588 -2.383229216010241 5.621188865117648
754 -3.7783637577002533 -2.618458125710471 -0.33731833492726454
800 -1.5697721313074657 0.6757698222381148 -2.1481955241183504
763 0.6122326542938682 1.5988729115428237 -2.0586393806289025
809 0.6160622789532645 -3.2651607609198905 0.41814664995144846
772 0.5894796288685308 -2.6017904144601225 1.1549359795333953
771 -5.347057433385497 -2.451629567543243 -1.3660251497606715
767 -0.5799990906674534 -0.5005230155229341 -1.525210984349816
778 -4.519903823421335 1.5389040117971275 -3.9593686151442893
781 -0.2493816194270557 -3.089731895410789 0.5041727791669679
780 1.7844804500528708 -3.2595608314984315 2.497044262159638
776 1.2495564786973485 2.938542907588015 -2.4712998105696484
787 1.2312354231921696 -0.9725455752850675 -6.625510854642848
790 -2.61525302121666 -1.0874498089871576 0.3950165787064561
785 -3.3507463232928982 -1.5309989757997797 -2.074848391107538
789 2.180671984239206 1.3006549466123816 -9.525146342648926
796 -5.458689789624864 -5.380222982561557 -3.7177123810785173
799 1.6800932262283765 4.089255424031284 5.69042758986459
794 0.6261423543777382 4.836442527614284 2.1544744769538093
808 -1.9481318271894628 -1.2125606442321508 -5.797247859459727
803 -2.438897967663457 -0.3101344710832789 -3.5137828939886595
769 4.6107286411654655 0.7806008378083112 -4.788377620839424
816 -0.06141989171676482 -0.6218729035598205 0.868778085754994
812 0.5643177938914905 -2.818362545880439 -1.2200095520587566
818 2.525340570535297 3.4918005002402226 0.05084076349310917
823 2.8400567540058437 -1.3966798713243564 2.251388877358192
825 1.148728783201113 2.44491466455783 0.42073541480774895
821 -0.8005813765358104 0.6818815488785535 1.1704298499351882
827 2.53818668736427 -1.6608343697908892 3.0734244297784996
832 1.5700976609073451 -0.3569418587926907 -0.46462125791397735
834 -2.1234313627970036 8.787699204893254 5.2278982254384925
830 -2.1519665158531716 0.6754456343518892 1.3108912785555322
836 3.444756672906172 0.2819954152882949 3.8264147854711235
841 -1.1269020788530928 -1.8047651650915777 -3.631456295562203
843 2.5091643495404243 -0.21603623912717387 -2.6941216763296056
839 -0.3298897919380735 -2.2572161178415246 -0.04128460645152301
845 0.10600615650456999 -1.1916599469091713 -1.2550891872107022
850 -2.8394944682709795 2.4055739688935733 3.7157979787707673
852 2.3838594485344577 -0.17582612737382347 -6.406990846123972
848 0.11271537523081551 -1.556972974745128 -2.7951362097126458
854 -5.1461816274495105 -6.530209890823931 -0.337051349743534
814 -1.3993440217481004 -5.185281002750633 2.6134272781453234
817 3.7281123372629796 3.053589564376315 2.5199743061359827
826 3.184637374921671 -5.121942659809519 -0.8169256083918626
835 1.6730299118065086 3.0003562829261496 1.5158615628693215
881 5.857267859315487 -4.097643822067088 0.4338113372988969
844 -2.7926509373872035 4.362355850116812 0.14400152800386842
853 -2.5567107562279396 -5.621418011895199 -0.7766597239260398
862 4.36156975436147 1.2986100436788561 -0.4425534374388507
857 2.7985926592162174 -0.37304931731817875 0.16781295500497112
861 -2.7063499445829713 -0.6737819366882116 -0.372540196154143
863 2.4961690438416393 -6.401724960358892 2.0898927424077005
868 0.8900729614349471 3.2131600795926984 1.130827746490625
871 1.713805042720294 0.6901259004453901 -1.932810199591797
870 -0.2719124140449225 1.9852500360287133 5.586813569512387
866 0.5050181468612975 -2.2173460067108666 0.8753445886492617
872 0.139263745131934 2.48279081158997 4.857456919807072
877 0.442257746885793 -0.8419489468947942 1.835643476624417
880 4.5100489082050235 0.9459403646753113 0.9935428808185843
879 2.3165038129684703 -1.7770352488548935 -0.5350492691984177
875 3.6413493281299374 -3.0872886969033386 1.3779671001883196
886 -1.6648255028013772 -2.1896384240096274 4.998194022855926
889 -0.8543240490892243 6.6341464070893 3.829262032417203
884 1.3024976713009058 -0.2946794370764969 0.49810865402720844
888 -2.0971074310151727 -5.32236875804911 1.3175798898671678
890 -1.6131201419373185 -0.634764457010545 0.4713620637653432
895 -0.25410608497072346 -2.293746463444605 0.39915867154629814
898 -1.4813697148278797 2.987725643515252 -2.6134730712944596
893 1.8504510520156514 -0.6791155630974708 -1.916674459746354
897 -4.704206123841827 -2.131728324341575 2.2316460420740967
899 -2.101042594091055 0.2634449997912803 -2.6229631839665646
859 3.5020688375854303 3.054744383779861 2.8429284982533845
720 -2.969182401469202 -3.535882391824821 -0.4688713983722937
684 -0.6066001449918147 2.827762470145847 4.848504278826789
693 0.7487732529985791 7.028972950872951 0.6271651088869248
694 0.7135359359920307 -3.0754106153783054 2.041180255383762
702 -2.027998758214812 -6.655008135452519 -2.7363993901365267
921 2.578875621967013 -2.409111410023153 -1.004716847463668
711 2.4635753250916257 -2.815482153519619 -0.611518956795901
679 1.6287858480405777 -0.38646176153162387 -2.9569218236692576
676 5.427170981810532 -1.5548999782185338 -0.9406053802399006
680 -1.44487651028059 3.22274439267772 -2.2161269996917436
948 0.8360402463525248 -0.6386102307333303 4.224302760362198
685 -0.3156060519564792 1.6605265374392548 -1.8483545949287332
689 0.8129578979898971 -4.33761420574414 1.4173485051037586
957 -2.7138640502269515 -1.1955058392562368 -0.8233164197981728
698 0.5234874636829949 -0.3265628289510137 -6.075373175506528
703 2.420724410722949 -0.8222606962783211 0.17248002618837538
707 -1.2135603785397988 -3.3790642769690917 -7.747679940789235
975 0.9555711258247153 2.74186339435636 -2.229400180679883
712 2.9477069517884766 -3.5768382976793687 3.710234423313976
716 -1.8362687402615598 0.7403040669068999 0.7371512520742071
984 2.176053169441825 -2.469006991445054 -4.677393367467198
721 4.8610130209442 -0.03382324408017132 1.1797660097987217
765 1.3802806302436097 -12.343571756529853 3.9129891748948977
730 -5.777687895460023 2.3276441588268315 1.2296994161347035
729 1.878241561086396 -4.526957997000022 -1.3926809671095874
739 -0.622349580411424 -2.673129685014903 -0.7826712295011747
738 0.20331167067465977 4.690401934604156 -0.6362316461318159
743 -5.255697089233125 -6.91060876148509 3.303786597792388
751 1.9363755161597067 2.4893552286505343 -0.32646561681749237
748 -0.8203893975369603 -2.5410587529669995 1.2169395429239882
747 1.4700642011242082 -2.0400704338832982 -5.431186527024261
753 0.6203397633286998 2.7398023429417018 -5.325526556592699
752 3.8187504353095485 -4.0708681120140895 5.812272911152294
757 0.33150509036048437 3.220625632900009 0.5850950525746097
756 0.11708953141648298 1.2090356760828056 -4.805354365073493
762 1.2828420764599147 3.9643950979849025 1.1841460603756782
725 -3.007050240695334 3.6051283950540105 -0.3455279846842754
774 1.239726990990688 -3.5855074894096814 1.994721215317688
734 -1.2844331498770234 -5.967224729626303 -0.31833435766028306
783 -1.854808210576342 -2.0774720186032263 0.10590655469884071
792 1.9871665332992603 1.577699779432627 0.528642550392115
801 -1.7333957286945685 2.8302773616565267 -1.1601395888045167
761 -0.6004685880573317 -0.16249151411887933 2.213979911618418
810 -1.070367955192044 -1.4478865074879503 -2.1592683433570308
766 -0.5040219100316741 -1.6856173703456423 0.8633178596153158
770 2.668023360861876 -1.9310517295513856 -5.641662468053127
775 3.3314038775162262 2.4807802107905856 2.5257938739728
779 -2.629756843281632 -3.537723521874472 -1.9967212136246444
1047 -1.6696709118955408 1.0257128108869558 -0.2617286636870464
784 -0.03695640829382861 -4.221698175263163 0.23949295600789056
788 5.357103704076363 1.2755521835580317 -0.020025600924100644
1056 0.3774273199593488 1.0994877714743958 1.5831785651369004
793 1.9123398762028787 0.5156004476425954 1.9290034946971497
797 -6.05080519339985 3.17049973438803 4.72620362035983
798 0.06261818588588351 -1.1938802208380754 -2.8715819848505277
805 -2.799579884801053 -1.8917434098069457 -0.3422631918879138
802 -3.093680570308473 -0.2541394297675404 -0.30281445175292626
807 -5.212937157455422 2.6292261440771587 -7.23509497464947
806 5.484099423212509 3.4764283932580082 1.0896279198417214
811 0.4119452835782998 -1.2704829477465749 -3.7194084843653092
855 2.185395961052306 -0.39554863539254964 1.496651112624034
820 -1.4109343120916071 1.4879221227191874 -0.0742279823316027
819 5.609698600179989 1.1688182306983237 0.4503745063074813
1038 -2.225339499690793 3.136489070748813 1.3674793097384896
829 1.3051212531757772 -2.3461891475471024 0.35998963307336423
828 0.4493270025748392 -3.2970558039762743 -0.5392353401937982
838 0.5323312012484067 3.0217924535272265 -2.9246668743243576
837 1.562878175393127 -2.779558483909407 3.9019305444715515
847 -1.469990739953661 0.001921266536865469 3.1255240854715307
846 1.1059412144650924 3.545989549829657 1.5852713651079997
815 2.3803839017185155 1.3058173303744636 4.473485265935284
824 2.9206736989742637 -3.751454882494849 -1.818096677868773
1092 2.4411461885029233 -2.081026323207521 4.024926785126305
833 1.6290148785446392 0.4243372551476634 -3.3686855657679744
1101 1.4441988084198034 0.9564620829364123 0.776607290606599
842 -0.5008826981759393 5.745508288011282 0.1632522290889699
891 2.34327642113443 -3.767155320255827 -1.4440121216208792
1110 1.523127076113432 1.9412164076381415 -0.33569520829328237
851 -1.2432634848962623 0.5855524256194075 -5.959764182923194
1119 -0.764973925812703 -1.2008782111322815 0.17706960329530774
856 -1.046649196788767 0.272268735465504 -1.9094475914593274
900 -4.6410120941955055 3.015265557340899 5.723805297734188
860 3.5834689674655023 -2.3123238097932424 -0.2815194863882507
865 2.475998463123761 -0.446502456183857 -0.9787929743930123
864 3.066023320241218 -1.106323851624438 6.422745871441325
869 4.814221896514975 -2.36357760338355 -0.1942660078353035
874 1.7974232134664467 -0.8817891935992943 1.4903228779554354
873 0.8223309168880896 -3.589234927115692 1.297334146225246
878 -2.360567884083772 2.410421513388272 -1.0254832820836002
883 -1.656018181513376 -2.9308917344678047 -3.9555458921412976
882 -3.641243459079172 -0.06821899619913774 2.3231731720238433
887 -1.3419667505913422 -3.9648641290605977 -1.446703421011341
892 0.8359799527338105 -2.975924649173357 2.3105824379650954
896 -4.239534978515565 -1.5265331462746867 3.996922179486973
903 1.5395877204670319 -0.08967397922873854 -3.5535076027321684
908 -1.0532500228754773 4.300890497742646 -0.753004913910834
917 -1.9780575763252906 4.123527624226877 -6.438286671051706
912 2.4207784446797023 -0.13586483053502574 -0.938352755820903
920 -0.28073590945899624 -0.40306450128397886 -2.7061973843459177
926 0.2736462420825584 1.158288878934403 6.984229848648473
930 1.7716554537694618 -0.02873730500089432 -2.093064346523665
935 0.9015715231300386 -7.121904579070785 1.5684511769950857
939 -2.9137381942555436 -2.9555053927505677 0.5770960902913066
944 -2.5230778417953497 1.1561791722700057 0.14203948743864828
907 1.6228062971844455 -1.7167632889925508 -3.3511805349618
902 -1.9489842417498646 -3.8329250322299084 1.6718754826338247
916 0.30562632454167166 -1.4445121653829849 -1.6243023913288037
911 -3.8975432074098695 2.2887644796647244 1.362110330638013
925 1.6439576854476725 -0.438384820908981 -4.405467465779207
966 0.3345679698150586 -0.4149327784079988 5.1832039025907175
934 1.295570825540879 4.359993626566159 -1.088217785753446
929 -0.02013105475026517 -1.3677689901667087 -4.965152996418921
943 -1.3868003435747118 2.102068955248997 -1.4234936572560923
938 0.5489578245418374 -0.5983500758828304 0.6319709371526088
947 -2.4998565401885755 -1.327622971028885 1.3081551546733718
953 2.1779373326915867 -2.479697282968622 -3.0041721194222815
956 -2.748534017001387 -0.981877662267176 0.2208727586620796
962 6.900667291878543 -1.411502813569282 -2.5285174344668455
965 3.204865662491554 2.5889915710254403 0.2575477315634436
970 -4.961792361568484 0.9923563261121164 2.84503907004654
971 -1.0944090747829205 0.4691481569130596 1.5066165342457398
974 3.8974046488649385 4.221902240718674 2.2836284022636297
979 2.2763716529719593 -3.153413726464792 2.826542542675027
980 -3.049305453271567 2.367307876193817 0.8713024364370816
983 -2.044514096511759 0.10311755339139415 -2.046905668351004
989 1.0475031608832643 2.2526160585265744 0.028217319725401164
993 0.6743285705918188 -0.9794739110198502 -1.1505552178275784
952 -1.5095084908545122 3.700858297619796 2.6075207412605588
998 5.277955970783552 5.630451485518735 -1.8514479514196178
961 3.933948390991121 -2.4325518964145743 3.360046278232431
1002 -1.501046102978226 0.3339852285122558 1.0092616564982513
1011 2.9093488187934264 -0.5714618658120906 -2.0201264990632044
1016 -1.360752475152486 -3.5150760020834806 2.569313593449427
1020 -0.5250495182989984 2.09370892948439 -1.6961950674024266
1025 0.9934166120007523 -2.102479895252011 -2.1051162128745635
988 -3.3884512379906484 -2.239717157945308 -1.3566522282840556
1029 2.567576442759169 -1.1737690419736135 -1.4351413479031545
997 -1.7302142511835408 1.2765192058680253 3.556974336836356
992 -2.51206255454427 -3.162889387647539 0.047845779090816214
1006 -1.9265840029244385 -0.8186367387317712 2.651225513806572
1001 0.6154966392706576 2.1668610946085107 3.3912309566015946
1007 -3.087518317659219 2.6556637961857934 -4.10785370364642
1015 1.1330973804982598 0.9599524430875003 2.7678614743974284
1010 -3.492612732638092 2.406742019803937 3.151809083014624
1024 6.543981833532242 -0.5350402681522277 3.3337796127232036
1019 2.781589761078109 2.150167370823988 -1.0812710843656619
1065 4.174751918036566 -2.086565254416815 -0.8289521320454036
1033 -4.467140914301395 -3.7781187508592575 -2.188298820672428
1028 -5.918658156149758 -3.7377784765063082 3.070992217168826
1074 0.650997021458524 3.9321150736353263 0.20234626309156803
1034 0.5399987223166702 -0.5638588392646587 -2.335305308495933
1037 2.5475599515613987 2.4421678195561713 1.025943428659052
1043 2.2404786863585633 -2.161210457759933 0.34568009330525545
1046 1.0500467923547512 0.8155007299381212 -1.624351621604722
1052 -1.4781735607175122 2.995291391561918 -0.7254055605013435
1055 -0.0990202482413367 0.40102307261986897 -4.837712152388167
1061 -6.992749040562531 -3.3232690711485016 -1.997141026315197
1064 1.789026659888419 -2.1133883699924305 -3.5394443694062905
1070 1.5504084235248246 3.0508651102391364 -2.4789045547278747
1073 -2.387727159256449 2.452858100438302 2.2361841069783406
1079 -1.648990006415194 -1.693230817421535 3.2800290970883603
1083 -1.5988978603961277 2.074724148315974 3.616295724535828
1042 2.581797619682993 1.3976777171168984 -1.1048264636063363
1051 1.502480164125316 -6.513127813550161 0.7316889903668825
1060 -1.7087318562413416 1.0875641516730028 -0.6252032114883261
1106 4.45154636892305 0.3268925919610556 2.244560808362543
1069 0.7150917917945204 -0.3280329247771079 1.6769059057348863
1115 0.9503900134103779 -1.908302078594615 0.16993437632560876
1078 4.575265177153903 -6.8586082880386625 0.9190638881157567
1087 1.997354400851141 -1.652799775095101 -3.6668957682946197
1082 -2.4818306891604167 -1.2089043233368522 0.5684951089140686
1088 -1.004856983026175 1.6055569943409598 -0.03466739661245833
1096 1.725155032726219 0.8595793238224654 -2.0719943364312936
1091 0.9018070826779652 2.513046149642221 -2.6931304156953098
1097 2.916032420959005 -4.620383652305376 -3.346302736270367
1105 1.6284923662546271 1.6439304373485708 -4.53285875297672
1100 3.310960792281124 -0.36395068131669334 -0.2789087288072729
1114 -0.9468222519426891 0.7969977213727967 4.268476921095707
1109 -1.824690787816266 1.012626151072061 0.48497166521464247
1123 -1.139492894084381 -5.327021771240921 -2.2566553630863053
1118 -0.228408212570947 0.6655331354902989 -4.174941248268691
1124 1.5984744894499072 1.6672133727191862 -0.056461084286495995
909 0.808771440544951 -2.8642467025690324 5.205483365568124
913 -6.865052048583196 0.6363747041006088 -0.396233094497692
918 -3.7493210740228564 0.004031066044103813 4.166552728879844
922 1.1192100589638556 3.0598374224371736 -2.881701710724654
927 -3.959440985154416 -4.943149103754403 -1.1973900066276322
931 0.9862218580478622 -2.8546150030165154 1.7717939675182692
928 1.2520930805730426 2.3599708047649917 -0.522088914308475
936 -4.88265401907015 4.569867465664114 -0.29884714205742763
940 -4.696234599417858 2.8481608976952737 0.16801703718283184
945 4.191521645573343 3.0045550147183366 -4.883982924779481
904 -0.9368875972823524 3.130894825510687 -4.541943350808659
901 -0.2912812344076713 -0.7540391043913232 -0.9663527020015795
906 -0.9312212574321036 1.2465624081567737 2.648253334876279
905 4.674673619587276 0.7452427129541364 1.9742095535170572
910 -2.841112741822117 0.36365480037746745 0.9319851246909039
915 -2.770414181124342 4.069179286369969 -1.243198706182467
914 0.5266239650077008 -0.5302007277702611 -1.0239984323343228
919 0.5905946082390446 0.26802494368507707 1.1183138385242997
924 -1.7631870627954302 3.0766640667549403 -0.9384591357900891
923 1.9472580304546812 -5.059834255314923 3.4327354581974077
933 1.5612558623283534 -3.7250160123918628 -2.882780364917795
932 2.2492900641871505 1.9745194033722064 -0.18913210502615396
937 -1.5878643693167878 -1.9325060488058343 2.824781547971824
942 -2.4660786172574163 -2.9112888304128273 -3.6679040638097744
941 -1.115670146564927 2.0146106938324158 3.326358996992367
946 -0.8797585365889641 1.3277184851953479 -0.1900150981220437
950 -4.468309831226109 -5.220542892829883 0.19650212114073035
951 4.24565985028699 2.1020248557103747 -1.4137805196193136
954 0.26371343757334104 0.30719877756360536 -0.6301838806878145
958 -0.8599578879574795 5.481758183199161 -0.5879484371483717
955 -0.623768298490001 2.5574322728051246 -1.0419663475841932
959 1.9182020081814941 -2.4759665434957125 -0.2745209663995173
960 -1.0005664509816776 0.6199872816838626 -4.538671762924089
963 0.8002365375795081 6.433190154495551 -4.513513394894068
964 -1.007435225489878 -0.19809010290119922 0.9833371277000894
967 0.22971524405719299 0.7221764911157456 2.654368542388243
968 0.5524741459416125 -5.170188423690323 0.05856469731118768
969 -0.8592740806441433 4.764290192635122 -3.2989447513660886
972 -0.0352098560618703 -4.296546185663734 -0.2779938073482307
973 4.07292367822704 -3.666848993232801 2.9240730206439562
976 -4.636535426405018 -2.2915757255739764 3.059585379765555
977 -3.307029751756643 0.7822265445887698 0.30976934508828247
978 -5.001068791623979 -0.8770419752765277 -2.6210589531385935
981 -3.4053162478932535 1.9771322338062751 1.139417051508349
985 -0.8753905274260271 4.251034847455559 1.9335273636806736
982 -0.41828852976774195 2.169494735128559 -0.9436629401372105
986 0.7844397160878799 0.47267155690451645 -5.7220719740308175
987 3.8573859653633518 1.1335639078391353 -4.956760510553206
990 2.0923790531737287 -2.7457960243842154 -3.7475723253951667
949 -1.3194637435003242 -5.3278011893573085 7.004637448455982
1035 1.541921978911446 3.0542799971244965 -7.2424933259917275
999 1.6450942047549493 0.7967491197103884 0.07133695721867549
1008 -0.61329675499644 -1.723670296693122 2.3200956376284734
1017 1.5844162014910605 -6.345405734266003 2.36359320897915
1026 -0.6592329696603341 0.373106664833195 2.681659177014023
994 -2.032271272684121 -0.9991618086145444 1.1852549879653458
991 -1.7514515139874096 0.8611477460926926 -1.907816195724673
996 3.0304040048347507 0.09706978362088409 4.235286534862841
995 3.3989766733339786 -5.746452244134861 1.2047663429926099
1003 -1.8027750620410554 4.057500121301493 -3.013256804790247
1000 -6.358767687244514 -0.17469995460571625 4.294260645834434
1005 0.2865477908304335 3.636858975706979 4.582172739493515
1004 -2.492921291030218 2.1164290831735393 3.079098236781147
1009 -0.3732160408504051 7.2520131976698154 2.520976576092338
1012 1.7424115574890346 3.4334018541176916 -2.4263653761518498
1014 -0.7312033244482417 2.465880724795824 -0.12613490076062808
1013 -0.15576557076734313 -3.511763693375675 0.48265062940330355
1018 0.9965588110203704 0.3268903213630702 0.9219742100031956
1021 0.8540177082592677 0.25974016163821445 -0.660231290467252
1023 -0.7582734673591951 0.6299940522254412 3.915946261808933
1022 -2.7329625580253034 -0.716418957784837 2.24756966756477
1027 2.02239115718587 0.41425033547276147 -3.727684786198473
1030 2.0923672442471215 -1.4658582112687775 2.098183238581308
1032 -4.728111617606892 0.45432333649250733 -3.521307131689985
1031 2.2954636809637248 -1.843002621410773 -0.8000674005080901
1036 2.7222196083094725 -0.6449835847459525 2.230867892577823
1041 -3.3725911194388387 -4.886502627266626 -0.05632347073863512
1044 -3.2764750433092686 -1.9781355943050298 1.8768954736376684
1048 0.9318432451159016 0.6726242647971289 4.133363584118331
1045 1.577210132446505 -0.8288641312571858 -0.8026680515679924
1050 -0.3796761292654289 -0.45205113791282214 -3.255510154238893
1053 -0.3518335834319403 -0.49892411759403144 2.753375255325555
1057 -0.10156629394159467 0.7437642822503541 -0.8282266989978462
1054 -0.3248949286920257 0.46817302211370676 -1.7294812316130683
1059 1.8060605858021883 -3.021642306477106 3.759003017992545
1062 3.510423696287077 2.6859329448898195 -5.157772905531615
1063 0.5471670761588283 0.8553647198328619 -0.31254062651936837
1066 2.1734636124323585 1.228251613643021 -0.9574074574611441
1068 -2.8015884378012714 0.6370594697283665 0.08415927202333633
1071 -0.23555294929408768 0.42878737753864865 -2.273392184764713
1072 -1.1353831324747476 -3.6114752889953055 1.140114746200522
1075 1.0274879292113293 -6.459513418787842 -4.771381695126856
1077 0.9036822372059621 -3.054388808910905 -1.8802586315965235
1080 -2.1531275527041265 -3.7512739233545265 2.6886182038534603
1039 -3.4281730466984297 -0.3719875588871004 0.4089689520015198
1040 -2.469468989751869 2.4702713899492674 0.23701974929070863
1049 -3.8227704638217617 1.0682478817506535 0.4552874992776712
1058 -4.5207321365281175 -1.4442585204020537 -1.1076529713587815
1067 0.4761009000546233 1.9019477289181146 0.8334684242838715
1076 -3.8033503190871016 -4.285786298536045 1.1720395648544055
1081 1.2988089216440377 1.685296955611294 3.5305698910048258
1085 -1.1599156293001287 -2.6334908689755543 5.609452053361402
1086 -1.0778046485457082 -0.7251608892603265 -1.4590049014899056
1089 -2.1109660008272324 -4.099456090292014 -0.9501404751639346
1090 -2.7048055450690276 0.31886798593017457 -1.2720378996020367
1093 0.9502837787229648 1.6817625338192626 1.315695915143865
1094 4.925348126730656 6.137615580307207 2.8862579893649993
1095 -3.836486875156228 -1.0204316767770931 0.013735202809423228
1102 3.3511364308090568 -1.3550704838180312 -6.08028986857136
1098 0.7010336003138395 3.5180471653526246 1.4189403668944442
1099 2.3681883958615026 -1.2522685942549088 -0.08821273050479769
1103 0.11332254481672446 7.7641826808580605 -1.88866397185013
1104 3.172279403304375 -1.765598408081888 -0.44135561132663276
1107 0.4165643301823996 1.453573173134249 1.7795877503037147
1108 0.3981044738767558 -0.27707771557027644 -0.7271426200981725
1111 -4.498284935435121 0.40971559993283097 0.13650617366248835
1112 2.0757790796715687 -1.1741491166597793 0.2257189736944225
1113 2.711122500681643 -5.9580331056046845 -0.4859584586759304
1116 1.137513539512423 -3.360067294670132 2.8968095042725146
1117 0.40569654886948686 2.014676142752915 1.7544824045419047
1120 1.5730784012593764 -0.006864487561734527 3.5446354272533664
1121 -0.7594906681830542 1.3324118473511206 -3.7463383838424793
1122 -0.7201156091902537 2.971760573883028 -4.712269963167074
1084 1.1653809213639326 4.6338868289746715 -1.7397832169320127
1125 2.1332060621982993 -0.541071705092158 -2.827702819306207
