LAMMPS (29 Aug 2024)
OMP_NUM_THREADS environment is not set. Defaulting to 1 thread. (src/comm.cpp:98)
  using 1 OpenMP thread(s) per MPI task
clear
OMP_NUM_THREADS environment is not set. Defaulting to 1 thread. (src/comm.cpp:98)
  using 1 OpenMP thread(s) per MPI task
variable seed equal 284565
units metal
boundary p p p
box tilt large

The 'box' command has been removed and will be ignored

atom_style full
read_data quartz.data
Reading data file ...
  triclinic box = (-0.828 -0.60219 -0.612) to (4.0879912 3.6551824 4.7929904) with tilt (-2.4579956 0 0)
WARNING: Triclinic box skew is large. LAMMPS will run inefficiently. (src/domain.cpp:221)
  1 by 1 by 1 MPI processor grid
  reading atoms ...
  9 atoms
Finding 1-2 1-3 1-4 neighbors ...
  special bond factors lj:    0        0        0       
  special bond factors coul:  0        0        0       
     0 = max # of 1-2 neighbors
     0 = max # of 1-3 neighbors
     0 = max # of 1-4 neighbors
     1 = max # of special neighbors
  special bonds CPU = 0.000 seconds
  read_data CPU = 0.001 seconds
replicate 5 5 5
Replication is creating a 5x5x5 = 125 times larger system...
  triclinic box = (-0.828 -0.60219 -0.612) to (23.751956 20.684672 26.412952) with tilt (-12.289978 0 0)
WARNING: Triclinic box skew is large. LAMMPS will run inefficiently. (src/domain.cpp:221)
  1 by 1 by 1 MPI processor grid
  1125 atoms
Finding 1-2 1-3 1-4 neighbors ...
  special bond factors lj:    0        0        0       
  special bond factors coul:  0        0        0       
     0 = max # of 1-2 neighbors
     0 = max # of 1-3 neighbors
     0 = max # of 1-4 neighbors
     1 = max # of special neighbors
  special bonds CPU = 0.000 seconds
  replicate CPU = 0.003 seconds
mass 1 28.0855
mass 2 15.9994
pair_style tersoff
pair_coeff * * ML-Tersoff.tersoff Si O
neighbor 2.0 nsq
neigh_modify delay 0 every 1 check yes
thermo 100
thermo_style custom step pe press density lx ly lz cella cellb cellc cellalpha cellbeta cellgamma
thermo_modify norm yes flush yes
min_style cg
fix boxrelax all box/relax tri 1.0 vmax 0.001
minimize 1e-12 1e-12 10000 20000

CITE-CITE-CITE-CITE-CITE-CITE-CITE-CITE-CITE-CITE-CITE-CITE-CITE

Your simulation uses code contributions which should be cited:

- Type Label Framework: https://doi.org/10.1021/acs.jpcb.3c08419

@Article{Gissinger24,
 author = {Jacob R. Gissinger, Ilia Nikiforov, Yaser Afshar, Brendon Waters, Moon-ki Choi, Daniel S. Karls, Alexander Stukowski, Wonpil Im, Hendrik Heinz, Axel Kohlmeyer, and Ellad B. Tadmor},
 title = {Type Label Framework for Bonded Force Fields in LAMMPS},
 journal = {J. Phys. Chem. B},
 year =    2024,
 volume =  128,
 number =  13,
 pages =   {3282–-3297}
}

CITE-CITE-CITE-CITE-CITE-CITE-CITE-CITE-CITE-CITE-CITE-CITE-CITE

Neighbor list info ...
  update: every = 1 steps, delay = 0 steps, check = yes
  max neighbors/atom: 2000, page size: 100000
  master list distance cutoff = 5.65153
  ghost atom cutoff = 5.65153
  1 neighbor lists, perpetual/occasional/extra = 1 0 0
  (1) pair tersoff, perpetual
      attributes: full, newton on
      pair build: full/nsq
      stencil: none
      bin: none
WARNING: Energy due to 6 extra global DOFs will be included in minimizer energies
 (src/min.cpp:219)
Per MPI rank memory allocation (min/avg/max) = 7.214 | 7.214 | 7.214 Mbytes
   Step         PotEng         Press         Density           Lx             Ly             Lz           Cella          Cellb          Cellc        CellAlpha       CellBeta      CellGamma   
         0  -0.12544045     2476500.6      2.6459623      24.579956      21.286862      27.024952      24.579956      24.579952      27.024952      90             90             120.00001    
       100  -3.3470903      705263.38      2.0040844      26.937985      23.333072      29.702178      26.937985      26.395723      29.702187      90.025609      89.95609       117.87476    
       200  -4.4132866      21774.323      1.5876423      29.078078      25.188424      32.175254      29.078078      28.460158      32.176029      90.195218      89.60252       117.74336    
       300  -4.4471385      3755.8397      1.5879194      28.977557      25.094281      32.402338      28.977557      28.966137      32.402345      90.038936      89.973273      119.96489    
       400  -4.4561933      5451.7608      1.5995735      28.189681      24.412355      33.988916      28.189681      28.187135      33.988919      90.022451      89.998134      119.99358    
       500  -4.4700387      3864.3508      1.6229054      27.365791      23.693303      35.556131      27.365791      27.35605       35.556134      90.02003       90.002236      119.99049    
       600  -4.4954941      759.65497      1.6620735      26.443358      22.903413      37.168438      26.443358      26.446314      37.16844       90.019656      89.991834      119.99899    
       700  -4.5397532      4890.391       1.724814       25.414382      22.002857      38.791847      25.414382      25.408752      38.791849      90.016292      89.998879      120.00797    
       800  -4.5881833     -5007.8752      1.7371274      25.174917      21.791484      39.260408      25.174917      25.160392      39.26041       90.016407      89.998879      119.99114    
       900  -4.6167715      1689.3769      1.7363666      25.151414      21.771549      39.35031       25.151414      25.138749      39.350312      90.015431      89.99938       119.99656    
      1000  -4.6373001     -3328.4747      1.7364519      25.102696      21.729097      39.501768      25.102696      25.091249      39.501771      90.016784      89.998235      120.00257    
      1100  -4.654989       1719.7009      1.7415344      25.006945      21.644902      39.691088      25.006945      24.994338      39.691094      90.029915      89.99717       120.0038     
      1200  -4.666983       3143.6933      1.7453569      24.937795      21.594936      39.805868      24.937795      24.933515      39.805872      90.024513      89.98819       119.99136    
      1300  -4.6806674      4073.5721      1.7502488      24.867994      21.520422      39.943858      24.867994      24.856723      39.943858      90.006635      89.99944       120.02825    
      1400  -4.6971744     -10536.15       1.7534488      24.772585      21.464921      40.128011      24.772585      24.795366      40.128031      90.041877      89.944771      120.03924    
      1500  -4.7087531     -2590.2478      1.7599         24.704068      21.391158      40.230052      24.704068      24.688282      40.230052      90.005056      90.001127      119.95133    
      1600  -4.720396      -693.27979      1.7629286      24.62104       21.32256       40.426009      24.62104       24.631317      40.426011      90.017646      89.994904      120.04085    
      1700  -4.7375114      8172.4781      1.7642689      24.464619      21.199811      40.888964      24.464619      24.470088      40.888966      90.017285      89.995631      119.96208    
      1800  -4.7564836     -2224.7167      1.7584004      24.375256      21.087676      41.394787      24.375256      24.348333      41.394788      90.01431       89.997874      119.99341    
      1900  -4.7791391     -6095.4571      1.7567595      24.213925      20.969212      41.945146      24.213925      24.217579      41.945149      90.018552      89.98679       120.0181     
      2000  -4.798895      -6653.8426      1.7575324      24.0917        20.86415       42.351603      24.0917        24.078185      42.351604      90.01031       90.000251      119.94365    
      2100  -4.8145159     -1244.425       1.7610541      23.982008      20.776003      42.640383      23.982008      23.994265      42.640384      90.010442      89.998273      120.01738    
      2200  -4.8383083      8234.5338      1.7686614      23.821918      20.627509      43.049997      23.821918      23.840863      43.049997      90.009293      89.998373      120.09256    
      2300  -4.8593932      2161.4285      1.772153       23.716554      20.529258      43.362597      23.716554      23.718587      43.362598      90.008625      89.998731      120.05619    
      2400  -4.881045      -913.53455      1.7778904      23.577504      20.424206      43.701197      23.577504      23.586284      43.701197      90.007788      89.99861       120.01027    
      2500  -4.8995004      844.11377      1.7858939      23.461844      20.314501      43.955919      23.461844      23.459842      43.95592       90.007289      89.998835      120.01132    
      2600  -4.9175814     -4097.9238      1.7932988      23.358136      20.236631      44.137963      23.358136      23.351341      44.137963      90.006516      89.999194      119.93233    
      2700  -4.9358982     -2248.2896      1.8034427      23.221063      20.131337      44.379691      23.221063      23.244726      44.379691      90.005975      89.999287      119.99599    
      2800  -4.9519731      4214.6049      1.815772       23.141867      20.00148       44.516343      23.141867      23.101992      44.516343      90.006925      89.998768      120.02693    
      2900  -4.966417      -1238.628       1.8227929      23.005864      19.949417      44.723444      23.005864      23.040318      44.723444      90.005405      89.999359      120.0203     
      3000  -4.9807687     -833.7894       1.8335145      22.937287      19.854312      44.808469      22.937287      22.920196      44.808469      90.005651      89.999914      119.9758     
      3100  -4.994698       4669.8746      1.8460207      22.816219      19.773535      44.92383       22.816219      22.83002       44.92383       90.005203      89.999565      119.98917    
      3200  -5.0085269     -1443.7221      1.8544171      22.726213      19.673946      45.124806      22.726213      22.716073      45.124806      90.004967      90.000931      119.99369    
      3300  -5.0190553      3008.3966      1.8649224      22.643247      19.600552      45.203657      22.643247      22.649782      45.203657      90.005956      89.998912      120.07447    
      3400  -5.0319566     -2593.1628      1.8745069      22.578383      19.519473      45.289067      22.578383      22.549216      45.289067      90.005298      90.001882      120.04429    
      3500  -5.0439586      1078.5827      1.8867022      22.468812      19.447132      45.38395       22.468812      22.467403      45.383951      90.00735       89.998196      120.05203    
      3600  -5.0557298     -2053.7619      1.8967056      22.373572      19.371673      45.513364      22.373572      22.378681      45.513364      90.005319      89.999676      120.0452     
      3700  -5.0676929      250.66386      1.9095635      22.271922      19.313304      45.550479      22.271922      22.282746      45.55048       90.003415      90.002254      119.91824    
      3800  -5.0784977      2180.1546      1.9210011      22.187693      19.222423      45.66605       22.187693      22.19336       45.66605       90.003054      90.003575      119.98756    
      3900  -5.088487      -706.58003      1.9305733      22.123953      19.151328      45.73971       22.123953      22.12979       45.73971       90.005681      89.999446      120.07051    
      4000  -5.0973842     -95.131096      1.9403738      22.054457      19.088403      45.802581      22.054457      22.06019       45.802582      90.00647       89.998054      120.08447    
      4100  -5.1052563      2879.1333      1.9500192      21.99161       19.042401      45.816689      21.99161       21.988049      45.81669       90.005334      89.999942      119.999      
      4200  -5.1146683     -704.19939      1.9533985      21.967653      19.015573      45.851909      21.967653      21.956689      45.851912      90.011779      90.008587      119.99727    
      4300  -5.1235498     -1144.1396      1.9530229      21.94725       19.011472      45.913261      21.94725       21.954214      45.913261      90.006475      90.000352      120.00749    
      4400  -5.1244408     -699.20698      1.9529291      21.949145      19.00694       45.922448      21.949145      21.950615      45.922448      90.004796      90.000494      120.01488    
      4500  -5.1252152     -267.30087      1.9528778      21.952102      19.002769      45.927548      21.952102      21.943324      45.927548      90.004693      90.000945      120.00369    
      4600  -5.1259706      806.80963      1.9529376      21.944373      19.006943      45.93223       21.944373      21.943676      45.93223       90.004147      90.00137       119.98348    
      4700  -5.1266802      431.0238       1.9527358      21.943073      19.008045      45.937033      21.943073      21.950415      45.937033      90.004429      90.000593      120.00821    
      4800  -5.1273608     -900.96581      1.9523606      21.949985      19.003711      45.941869      21.949985      21.946596      45.941869      90.004656      90.000553      120.01357    
      4900  -5.1280129     -456.40642      1.9523071      21.947086      19.005063      45.945927      21.947086      21.941694      45.945927      90.004145      90.001294      119.98433    
      5000  -5.1286329      995.34889      1.9524382      21.941201      19.007453      45.949387      21.941201      21.946902      45.949387      90.004116      90.000905      119.99541    
      5100  -5.1292277      491.87359      1.9522167      21.946318      19.003565      45.953283      21.946318      21.947473      45.953283      90.004518      90.000399      120.01829    
      5200  -5.1298032     -831.09262      1.9518479      21.948838      19.003324      45.957275      21.948838      21.941872      45.957275      90.004226      90.001005      119.99423    
      5300  -5.1303525     -620.9831       1.9517596      21.943054      19.007831      45.960568      21.943054      21.945199      45.960568      90.00394       90.001071      119.98574    
      5400  -5.1308744      501.671        1.9518398      21.943825      19.005215      45.963388      21.943825      21.948235      45.963388      90.004278      90.000458      120.01312    
      5500  -5.1313825      826.8081       1.9517771      21.947609      19.001331      45.966335      21.947609      21.942569      45.966336      90.004277      90.000685      120.00779    
      5600  -5.1318594     -163.62611      1.951482       21.943884      19.006123      45.969497      21.943884      21.942906      45.969497      90.003869      90.001093      119.98428    
      5700  -5.1323226     -843.85411      1.9512446      21.943028      19.007952      45.97246       21.943028      21.948765      45.972461      90.004009      90.000634      120.00123    
      5800  -5.1327708      16.768342      1.9512882      21.947881      19.00235       45.974818      21.947881      21.94531       45.974818      90.004254      90.000464      120.01486    
      5900  -5.1331934      621.44104      1.9512907      21.9456        19.003362      45.977089      21.9456        21.941393      45.977089      90.003922      90.000943      119.99186    
      6000  -5.1336022      72.696685      1.951087       21.941457      19.007879      45.979642      21.941457      21.946418      45.979642      90.003789      90.000834      119.991      
      6100  -5.1339943     -499.55268      1.9508827      21.946014      19.004915      45.982077      21.946014      21.947376      45.982077      90.004068      90.000472      120.0108     
      6200  -5.1343645     -273.57551      1.9508272      21.94823       19.002686      45.984137      21.94823       21.942192      45.984137      90.003967      90.000764      119.99901    
      6300  -5.1347265      609.59214      1.9508922      21.942965      19.005876      45.985918      21.942965      21.943647      45.985919      90.003736      90.000889      119.98892    
      6400  -5.1350722      334.53105      1.9507513      21.943538      19.005901      45.987978      21.943538      21.948189      45.987979      90.003924      90.000471      120.00933    
      6500  -5.1354016     -692.43426      1.9504786      21.948366      19.003473      45.990166      21.948366      21.944804      45.990166      90.003962      90.000567      120.00671    
      6600  -5.1357187     -318.31015      1.9504616      21.945348      19.005559      45.991841      21.945348      21.942945      45.991841      90.003698      90.000884      119.9874     
      6700  -5.1360219      663.84296      1.950558       21.942445      19.00656       45.993231      21.942445      21.947103      45.993231      90.003755      90.000604      120.00098    
      6800  -5.1374408      161.20958      1.9500848      21.946316      19.004493      46.001281      21.946316      21.946092      46.001281      90.004064      90.000496      120.0072     
      6900  -5.1376924     -595.73625      1.9498789      21.948277      19.004116      46.002942      21.948277      21.94467       46.002942      90.003716      90.000568      120.00274    
      7000  -5.1379144     -290.52813      1.9498731      21.945506      19.006104      46.004072      21.945506      21.943926      46.004072      90.003545      90.000747      119.989      
      7100  -5.1381275      536.09576      1.949964       21.943417      19.006652      46.004983      21.943417      21.947429      46.004983      90.003602      90.000531      120.00198    
      7200  -5.1383301      388.21377      1.9498817      21.946985      19.003885      46.006143      21.946985      21.945764      46.006143      90.003693      90.00047       120.0089     
      7300  -5.1385241     -312.50761      1.9497017      21.946687      19.005363      46.007435      21.946687      21.943752      46.007435      90.003542      90.00069       119.99208    
      7400  -5.1387139     -492.83023      1.9496169      21.944268      19.007832      46.008532      21.944268      21.947282      46.008532      90.003512      90.000598      119.99516    
      7500  -5.1388916      113.02905      1.9496773      21.946566      19.004931      46.009312      21.946566      21.947128      46.009312      90.003638      90.000437      120.00961    
      7600  -5.1390635      517.73605      1.9497029      21.947185      19.003808      46.010126      21.947185      21.943584      46.010126      90.003563      90.000596      119.99944    
      7700  -5.1392286     -4.2329216      1.9495631      21.944164      19.007347      46.011194      21.944164      21.945891      46.011194      90.003448      90.000645      119.99139    
      7800  -5.1393848     -347.4165       1.949458       21.945948      19.006429      46.012155      21.945948      21.947982      46.012155      90.003553      90.000463      120.00565    
      7900  -5.1395354     -80.361016      1.9494645      21.948302      19.004022      46.012895      21.948302      21.944887      46.012895      90.003563      90.000516      120.00422    
      8000  -5.1396819      333.57375      1.9494988      21.94533       19.005987      46.013559      21.94533       21.944683      46.013559      90.003441      90.000629      119.99303    
      8100  -5.1398196      183.20606      1.9494335      21.94446       19.007046      46.01436       21.94446       21.947989      46.01436       90.003475      90.000492      120.00245    
      8200  -5.1399528     -386.87873      1.9492937      21.947801      19.005142      46.015265      21.947801      21.946629      46.015265      90.003525      90.000468      120.00625    
      8300  -5.1400801     -199.50421      1.9492922      21.946788      19.005772      46.015899      21.946788      21.944461      46.0159        90.003423      90.000615      119.99315    
      8400  -5.1402013      441.87645      1.9493745      21.944274      19.006959      46.016352      21.944274      21.946922      46.016353      90.003413      90.000539      119.99808    
      8500  -5.1403176      224.32361      1.9493029      21.946749      19.005224      46.017055      21.946749      21.947114      46.017055      90.003487      90.000444      120.00801    
      8600  -5.1404301     -339.0789       1.94917        21.94766       19.005404      46.017847      21.94766       21.944746      46.017847      90.003417      90.00057       119.99636    
      8700  -5.1405381     -298.33528      1.9491474      21.945239      19.007485      46.018418      21.945239      21.946711      46.018418      90.003368      90.000563      119.99438    
      8800  -5.1406399      165.21449      1.9492029      21.94619       19.005953      46.018822      21.94619       21.947644      46.018823      90.003436      90.000448      120.0066     
      8900  -5.1407392      397.34464      1.9492173      21.94746       19.004522      46.019287      21.94746       21.944959      46.019287      90.003415      90.000514      120.00193    
      9000  -5.1408329     -32.495977      1.9491137      21.945418      19.007033      46.019932      21.945418      21.945871      46.019932      90.003335      90.000574      119.99294    
      9100  -5.1409225     -315.54937      1.9490377      21.945947      19.007079      46.020507      21.945947      21.948143      46.020507      90.00338       90.000469      120.00298    
      9200  -5.1410098     -29.466481      1.9490651      21.948063      19.004821      46.020889      21.948063      21.946025      46.020889      90.003403      90.000471      120.00519    
      9300  -5.1410932      239.93629      1.9490906      21.946215      19.006022      46.021253      21.946215      21.945207      46.021253      90.003328      90.000554      119.99522    
      9400  -5.1411719      89.81301       1.9490417      21.944977      19.007376      46.021728      21.944977      21.947709      46.021728      90.003326      90.000496      119.99947    
      9500  -5.1412486     -257.26196      1.9489578      21.947431      19.005852      46.022252      21.947431      21.947202      46.022253      90.003365      90.000457      120.00513    
      9600  -5.1413211     -150.38847      1.9489569      21.947307      19.005819      46.022611      21.947307      21.945145      46.022611      90.003313      90.000539      119.996      
      9700  -5.1413905      324.49849      1.9490234      21.945125      19.006969      46.022834      21.945125      21.946708      46.022834      90.00329       90.000517      119.99706    
      9800  -5.1414574      158.65204      1.9489749      21.946614      19.005981      46.02325       21.946614      21.947561      46.02325       90.003333      90.000446      120.00608    
      9900  -5.1415219     -298.44277      1.9488745      21.947896      19.005646      46.023744      21.947896      21.94559       46.023744      90.003303      90.000508      119.99892    
     10000  -5.1415833     -195.0451       1.9488761      21.945929      19.00721       46.024041      21.945929      21.946503      46.024041      90.003261      90.000525      119.99488    
Loop time of 114.191 on 1 procs for 10000 steps with 1125 atoms

108.5% CPU use with 1 MPI tasks x 1 OpenMP threads

Minimization stats:
  Stopping criterion = max iterations
  Energy initial, next-to-last, final = 
    -0.125440445313452  -5.14157964984275  -5.14158046968065
  Force two-norm initial, final = 37870.445 13.407419
  Force max component initial, final = 22274.076 9.7634914
  Final line search alpha, max atom move = 7.2102766e-05 0.00070397474
  Iterations, force evaluations = 10000 16967

MPI task timing breakdown:
Section |  min time  |  avg time  |  max time  |%varavg| %total
---------------------------------------------------------------
Pair    | 113.01     | 113.01     | 113.01     |   0.0 | 98.97
Bond    | 0.0010274  | 0.0010274  | 0.0010274  |   0.0 |  0.00
Neigh   | 0.26076    | 0.26076    | 0.26076    |   0.0 |  0.23
Comm    | 0.15999    | 0.15999    | 0.15999    |   0.0 |  0.14
Output  | 0.0047837  | 0.0047837  | 0.0047837  |   0.0 |  0.00
Modify  | 0          | 0          | 0          |   0.0 |  0.00
Other   |            | 0.7547     |            |       |  0.66

Nlocal:           1125 ave        1125 max        1125 min
Histogram: 1 0 0 0 0 0 0 0 0 0
Nghost:           2523 ave        2523 max        2523 min
Histogram: 1 0 0 0 0 0 0 0 0 0
Neighs:              0 ave           0 max           0 min
Histogram: 1 0 0 0 0 0 0 0 0 0
FullNghs:        51750 ave       51750 max       51750 min
Histogram: 1 0 0 0 0 0 0 0 0 0

Total # of neighbors = 51750
Ave neighs/atom = 46
Ave special neighs/atom = 0
Neighbor list builds = 31
Dangerous builds = 0
unfix boxrelax
min_style cg
minimize 1e-08 1e-10 5000 100000
Per MPI rank memory allocation (min/avg/max) = 7.214 | 7.214 | 7.214 Mbytes
   Step         PotEng         Press         Density           Lx             Ly             Lz           Cella          Cellb          Cellc        CellAlpha       CellBeta      CellGamma   
     10000  -5.1415833     -195.0451       1.9488761      21.945929      19.00721       46.024041      21.945929      21.946503      46.024041      90.003261      90.000525      119.99488    
     10006  -5.1429751      1419.1197      1.9488761      21.945929      19.00721       46.024041      21.945929      21.946503      46.024041      90.003261      90.000525      119.99488    
Loop time of 0.0914182 on 1 procs for 6 steps with 1125 atoms

100.0% CPU use with 1 MPI tasks x 1 OpenMP threads

Minimization stats:
  Stopping criterion = energy tolerance
  Energy initial, next-to-last, final = 
     -5.14158327574134  -5.14297513007569  -5.14297514465332
  Force two-norm initial, final = 4.0580925 0.033024693
  Force max component initial, final = 0.16933699 0.0012627034
  Final line search alpha, max atom move = 1 0.0012627034
  Iterations, force evaluations = 6 12

MPI task timing breakdown:
Section |  min time  |  avg time  |  max time  |%varavg| %total
---------------------------------------------------------------
Pair    | 0.090993   | 0.090993   | 0.090993   |   0.0 | 99.53
Bond    | 6.4e-07    | 6.4e-07    | 6.4e-07    |   0.0 |  0.00
Neigh   | 0          | 0          | 0          |   0.0 |  0.00
Comm    | 0.00016672 | 0.00016672 | 0.00016672 |   0.0 |  0.18
Output  | 0          | 0          | 0          |   0.0 |  0.00
Modify  | 0          | 0          | 0          |   0.0 |  0.00
Other   |            | 0.0002578  |            |       |  0.28

Nlocal:           1125 ave        1125 max        1125 min
Histogram: 1 0 0 0 0 0 0 0 0 0
Nghost:           2523 ave        2523 max        2523 min
Histogram: 1 0 0 0 0 0 0 0 0 0
Neighs:              0 ave           0 max           0 min
Histogram: 1 0 0 0 0 0 0 0 0 0
FullNghs:        51750 ave       51750 max       51750 min
Histogram: 1 0 0 0 0 0 0 0 0 0

Total # of neighbors = 51750
Ave neighs/atom = 46
Ave special neighs/atom = 0
Neighbor list builds = 0
Dangerous builds = 0
print "FINAL_MLT_TRI: density=$(density) lx=$(lx) ly=$(ly) lz=$(lz) pe=$(pe)"
FINAL_MLT_TRI: density=1.9488761099856728443 lx=21.945928980546963061 ly=19.007210362681618676 lz=46.024041259049951691 pe=-5.1429751446533247261
Total wall time: 0:01:54
