LAMMPS (29 Aug 2024)
OMP_NUM_THREADS environment is not set. Defaulting to 1 thread. (src/comm.cpp:98)
  using 1 OpenMP thread(s) per MPI task
clear
OMP_NUM_THREADS environment is not set. Defaulting to 1 thread. (src/comm.cpp:98)
  using 1 OpenMP thread(s) per MPI task
variable seed equal 284565
units metal
boundary p p p
box tilt large

The 'box' command has been removed and will be ignored

atom_style full
read_data quartz.data
Reading data file ...
  triclinic box = (-0.828 -0.60219 -0.612) to (4.0879912 3.6551824 4.7929904) with tilt (-2.4579956 0 0)
WARNING: Triclinic box skew is large. LAMMPS will run inefficiently. (src/domain.cpp:221)
  1 by 1 by 1 MPI processor grid
  reading atoms ...
  9 atoms
Finding 1-2 1-3 1-4 neighbors ...
  special bond factors lj:    0        0        0       
  special bond factors coul:  0        0        0       
     0 = max # of 1-2 neighbors
     0 = max # of 1-3 neighbors
     0 = max # of 1-4 neighbors
     1 = max # of special neighbors
  special bonds CPU = 0.000 seconds
  read_data CPU = 0.002 seconds
replicate 5 5 5
Replication is creating a 5x5x5 = 125 times larger system...
  triclinic box = (-0.828 -0.60219 -0.612) to (23.751956 20.684672 26.412952) with tilt (-12.289978 0 0)
WARNING: Triclinic box skew is large. LAMMPS will run inefficiently. (src/domain.cpp:221)
  1 by 1 by 1 MPI processor grid
  1125 atoms
Finding 1-2 1-3 1-4 neighbors ...
  special bond factors lj:    0        0        0       
  special bond factors coul:  0        0        0       
     0 = max # of 1-2 neighbors
     0 = max # of 1-3 neighbors
     0 = max # of 1-4 neighbors
     1 = max # of special neighbors
  special bonds CPU = 0.000 seconds
  replicate CPU = 0.004 seconds
mass 1 28.0855
mass 2 15.9994
pair_style tersoff
pair_coeff * * Q-Tersoff.tersoff Si O
neighbor 2.0 nsq
neigh_modify delay 0 every 1 check yes
thermo 100
thermo_style custom step pe press density lx ly lz cella cellb cellc cellalpha cellbeta cellgamma
thermo_modify norm yes flush yes
min_style cg
fix boxrelax all box/relax tri 1.0 vmax 0.001
minimize 1e-12 1e-12 10000 20000

CITE-CITE-CITE-CITE-CITE-CITE-CITE-CITE-CITE-CITE-CITE-CITE-CITE

Your simulation uses code contributions which should be cited:

- Type Label Framework: https://doi.org/10.1021/acs.jpcb.3c08419

@Article{Gissinger24,
 author = {Jacob R. Gissinger, Ilia Nikiforov, Yaser Afshar, Brendon Waters, Moon-ki Choi, Daniel S. Karls, Alexander Stukowski, Wonpil Im, Hendrik Heinz, Axel Kohlmeyer, and Ellad B. Tadmor},
 title = {Type Label Framework for Bonded Force Fields in LAMMPS},
 journal = {J. Phys. Chem. B},
 year =    2024,
 volume =  128,
 number =  13,
 pages =   {3282–-3297}
}

CITE-CITE-CITE-CITE-CITE-CITE-CITE-CITE-CITE-CITE-CITE-CITE-CITE

Neighbor list info ...
  update: every = 1 steps, delay = 0 steps, check = yes
  max neighbors/atom: 2000, page size: 100000
  master list distance cutoff = 5.5725167
  ghost atom cutoff = 5.5725167
  1 neighbor lists, perpetual/occasional/extra = 1 0 0
  (1) pair tersoff, perpetual
      attributes: full, newton on
      pair build: full/nsq
      stencil: none
      bin: none
WARNING: Energy due to 6 extra global DOFs will be included in minimizer energies
 (src/min.cpp:219)
Per MPI rank memory allocation (min/avg/max) = 7.214 | 7.214 | 7.214 Mbytes
   Step         PotEng         Press         Density           Lx             Ly             Lz           Cella          Cellb          Cellc        CellAlpha       CellBeta      CellGamma   
         0  -2.8282906      1670212.4      2.6459623      24.579956      21.286862      27.024952      24.579956      24.579952      27.024952      90             90             120.00001    
       100  -4.9526442      347632.1       2.0047037      26.923075      23.318943      29.727447      26.923075      26.391059      29.727455      90.022774      89.959338      117.92119    
       200  -5.1712299      2553.9542      1.7994996      27.896174      24.162229      30.846645      27.896174      27.89638       30.84665       90.029698      89.992178      119.98663    
       300  -5.1817424      947.03179      1.8003581      27.438414      23.758804      31.878573      27.438414      27.429131      31.878577      90.023941      90.005487      119.98128    
       400  -5.1964109      3401.6824      1.8200297      26.612064      23.055076      33.505627      26.612064      26.623513      33.50563       90.023947      89.990544      120.00673    
       500  -5.2234288      3553.6042      1.8605502      25.65802       22.218377      35.274792      25.65802       25.657606      35.274795      90.019834      89.999356      120.00787    
       600  -5.2658104      4226.9593      1.9204349      24.700587      21.386627      36.880106      24.700587      24.699219      36.880109      90.017499      89.999805      120.01635    
       700  -5.3307289     -3845.7119      1.934937       24.374994      21.104225      37.588983      24.374994      24.361942      37.588985      90.018342      89.996462      119.97099    
       800  -5.3458042     -4905.147       1.934576       24.339109      21.057813      37.734413      24.339109      24.302517      37.734415      90.017169      89.997498      119.94707    
       900  -5.3679341     -3726.9893      1.9375351      24.246639      20.971656      37.975848      24.246639      24.197828      37.97585       90.009483      90.011243      119.92546    
      1000  -5.3827099     -7045.6555      1.9397593      24.167169      20.923797      38.144086      24.167169      24.186812      38.144105      90.054303      89.989182      120.10689    
      1100  -5.3970953      2965.7864      1.9466387      24.074391      20.829611      38.328298      24.074391      24.038449      38.3283        90.014573      90.002362      119.94416    
      1200  -5.4126636      4045.9364      1.9513925      24.007118      20.760559      38.469596      24.007118      23.99569       38.469597      90.012074      90.004776      120.09689    
      1300  -5.4302196      1899.5425      1.9570312      23.907271      20.680006      38.669         23.907271      23.894439      38.669004      90.02892       89.985455      120.06318    
      1400  -5.4409465     -2669.5958      1.9600977      23.826576      20.650569      38.794481      23.826576      23.842195      38.794482      90.010818      90.001641      119.98739    
      1500  -5.4524934     -359.20867      1.9657853      23.765547      20.574114      38.925689      23.765547      23.743778      38.92569       90.001099      90.009633      119.94494    
      1600  -5.4659594     -7231.9829      1.9708319      23.665061      20.513968      39.105196      23.665061      23.670866      39.105216      90.044458      90.009926      119.93023    
      1700  -5.4788754      22.549953      1.9797361      23.57147       20.425243      39.253658      23.57147       23.587229      39.253659      90.012612      90.002975      120.00922    
      1800  -5.490681       2916.7225      1.9875783      23.49336       20.341923      39.389452      23.49336       23.491212      39.389453      90.00642       89.997267      120.01006    
      1900  -5.5035601     -2352.0012      1.995392       23.389845      20.259587      39.569011      23.389845      23.397961      39.569011      89.992053      89.999143      120.01783    
      2000  -5.5127557     -2276.4885      2.0027226      23.309451      20.189212      39.698045      23.309451      23.313094      39.698047      90.014527      90.000982      120.00255    
      2100  -5.5196052     -4143.4701      2.0085677      23.214324      20.157364      39.807517      23.214324      23.26867       39.807533      90.04447       89.999962      119.96992    
      2200  -5.5283551      4233.0055      2.0187654      23.151623      20.050482      39.925394      23.151623      23.16418       39.925394      89.994936      90.000704      120.05084    
      2300  -5.5373837     -1343.1879      2.0274956      23.068021      19.957191      40.084055      23.068021      23.05344       40.084056      90.013261      89.997641      120.03812    
      2400  -5.5413373     -2298.8241      2.0321519      23.006949      19.928647      40.155804      23.006949      23.019969      40.155805      90.011806      89.996665      120.03598    
      2500  -5.5440915      249.11541      2.0363002      22.979456      19.887772      40.204408      22.979456      22.973391      40.204409      90.012834      89.997374      120.03872    
      2600  -5.5492572     -7711.2935      2.0413678      22.92374       19.841283      40.296272      22.92374       22.90954       40.296278      90.009642      89.969775      119.9948     
      2700  -5.554411      -2210.4653      2.0509237      22.836701      19.764133      40.418547      22.836701      22.822775      40.418548      90.010267      90.002521      120.00487    
      2800  -5.5576035     -1554.9904      2.056176       22.787832      19.719718      40.492758      22.787832      22.776611      40.49276       90.011506      90.002642      120.02719    
      2900  -5.5596247      3321.0752      2.0607587      22.742965      19.695318      40.532568      22.742965      22.746598      40.532574      89.994225      90.030119      120.01921    
      3000  -5.5616333     -668.71298      2.0619236      22.703967      19.670286      40.630891      22.703967      22.705734      40.630892      90.008172      90.002147      119.96696    
      3100  -5.5629457      810.1942       2.0640283      22.676672      19.646153      40.688235      22.676672      22.688886      40.688236      90.008331      90.001473      120.01514    
      3200  -5.5641673      467.87082      2.0653222      22.664381      19.618622      40.74189       22.664381      22.662426      40.74189       90.008535      90.001192      120.03848    
      3300  -5.5653192     -906.3899       2.0661586      22.648955      19.59966       40.792561      22.648955      22.632577      40.792562      90.008258      90.001666      120.00368    
      3400  -5.5665106     -682.54961      2.0677644      22.613237      19.591057      40.84319       22.613237      22.612966      40.84319       90.007643      90.002127      119.96119    
      3500  -5.5675226      859.86859      2.0697133      22.590365      19.572691      40.884374      22.590365      22.600509      40.884374      90.007823      90.001554      119.99961    
      3600  -5.5684643      376.58632      2.0707608      22.580609      19.552542      40.923475      22.580609      22.584752      40.923476      90.008139      90.00109       120.03259    
      3700  -5.5693544     -756.57997      2.0714837      22.572294      19.535449      40.960072      22.572294      22.561737      40.960073      90.008093      90.001343      120.01822    
      3800  -5.5701987     -343.6106       2.0728053      22.552957      19.523857      40.993378      22.552957      22.539633      40.993379      90.007698      90.001923      119.97985    
      3900  -5.5709964      619.61794      2.074287       22.530004      19.51539       41.023621      22.530004      22.529165      41.023621      90.007521      90.001909      119.97679    
      4000  -5.5717505      257.43405      2.0751779      22.514635      19.506531      41.052634      22.514635      22.524819      41.052635      90.007672      90.001438      120.00272    
      4100  -5.5724778     -463.71642      2.0758783      22.510487      19.490531      41.080043      22.510487      22.510867      41.080044      90.007943      90.001192      120.02265    
      4200  -5.5731609     -52.070561      2.0769911      22.503531      19.474445      41.104648      22.503531      22.491394      41.104649      90.007987      90.001356      120.01871    
      4300  -5.5738159      542.28005      2.0781316      22.48679       19.467481      41.127381      22.48679       22.47627       41.127382      90.007658      90.001817      119.98745    
      4400  -5.5744466     -31.571788      2.0787635      22.470276      19.465393      41.14951       22.470276      22.471078      41.14951       90.007466      90.001888      119.97516    
      4500  -5.5750456     -667.77879      2.0793235      22.460842      19.458637      41.169998      22.460842      22.46825       41.169998      90.007642      90.00151       119.99714    
      4600  -5.5756175      246.67458      2.0804739      22.455437      19.444067      41.187975      22.455437      22.457559      41.187976      90.00793       90.001209      120.02423    
      4700  -5.5761744      497.28443      2.0813297      22.450328      19.432307      41.20533       22.450328      22.442776      41.205331      90.007961      90.001367      120.01892    
      4800  -5.5767033     -545.33802      2.0816249      22.44332       19.427673      41.222182      22.44332       22.431348      41.222182      90.007781      90.001734      119.99205    
      4900  -5.5772133     -300.99758      2.0824102      22.429922      19.424954      41.237022      22.429922      22.424759      41.237023      90.007607      90.001906      119.97678    
      5000  -5.5777036      604.02961      2.0834314      22.417626      19.419825      41.250307      22.417626      22.4219        41.250308      90.007667      90.001697      119.99034    
      5100  -5.5781781      267.97104      2.0839336      22.413022      19.412918      41.263516      22.413022      22.419402      41.263516      90.007898      90.001359      120.01458    
      5200  -5.5786358     -409.11597      2.0842695      22.412559      19.404373      41.275886      22.412559      22.410609      41.275887      90.008037      90.001339      120.01934    
      5300  -5.5790714     -72.329814      2.0849884      22.409291      19.39547       41.286614      22.409291      22.398298      41.286614      90.008044      90.001536      120.01036    
      5400  -5.5794974      425.69313      2.0857536      22.398813      19.392808      41.296443      22.398813      22.390475      41.296444      90.007867      90.001811      119.98932    
      5500  -5.5799091     -35.415147      2.0861178      22.389136      19.393265      41.306103      22.389136      22.388912      41.306104      90.007774      90.001866      119.98004    
      5600  -5.5803062     -541.99375      2.0864442      22.383878      19.390624      41.314973      22.383878      22.389104      41.314973      90.007901      90.001645      119.99442    
      5700  -5.5806871      319.55091      2.0872961      22.380602      19.382183      41.322141      22.380602      22.384444      41.322142      90.008119      90.001416      120.01696    
      5800  -5.581059       301.46346      2.0877841      22.379921      19.374929      41.329208      22.379921      22.376863      41.329208      90.00823       90.001428      120.02049    
      5900  -5.5814202     -526.38161      2.0879377      22.378573      19.371424      41.336133      22.378573      22.369531      41.336134      90.008204      90.001624      120.00593    
      6000  -5.5817692     -228.02969      2.0885253      22.37156       19.369451      41.341668      22.37156       22.362908      41.341669      90.008087      90.001867      119.98665    
      6100  -5.5821081      381.0365       2.0892199      22.363208      19.36805       41.34635       22.363208      22.361002      41.34635       90.00807       90.001871      119.98537    
      6200  -5.5824351      73.847665      2.0895404      22.357293      19.36802       41.351009      22.357293      22.362596      41.35101       90.008129      90.001745      119.9926     
      6300  -5.5827535     -387.19291      2.0897874      22.357801      19.363342      41.355171      22.357801      22.361235      41.355172      90.008331      90.001551      120.01053    
      6400  -5.5830655      74.031753      2.0903934      22.357592      19.356484      41.358217      22.357592      22.355345      41.358217      90.008475      90.001509      120.01954    
      6500  -5.5833687      427.48321      2.0909451      22.355522      19.351971      41.360776      22.355522      22.348209      41.360777      90.008487      90.001657      120.011      
      6600  -5.5836609     -391.73346      2.0910226      22.353161      19.352008      41.363531      22.353161      22.344156      41.363532      90.008426      90.001855      119.99281    
      6700  -5.5839482     -221.73494      2.0914832      22.347162      19.35218       41.365157      22.347162      22.342242      41.365158      90.008385      90.001951      119.98343    
      6800  -5.5848894      131.16614      2.0929484      22.336357      19.347039      41.367186      22.336357      22.335441      41.367187      90.008531      90.002043      119.97958    
      6900  -5.585159      -194.84129      2.0931833      22.334488      19.346353      41.36747       22.334488      22.339341      41.367471      90.008728      90.001805      120.00043    
      7000  -5.5854141      361.94767      2.0937539      22.333251      19.342722      41.36625       22.333251      22.332305      41.366251      90.008733      90.002001      119.98779    
      7100  -5.585662       71.107995      2.0939867      22.330445      19.343528      41.365126      22.330445      22.334996      41.365127      90.008827      90.001902      119.99562    
      7200  -5.5859057     -344.0527       2.0941638      22.33233       19.340947      41.363657      22.33233       22.335087      41.363658      90.009005      90.001778      120.00926    
      7300  -5.5861468      85.537211      2.094667       22.333354      19.336554      41.361218      22.333354      22.331801      41.361219      90.009148      90.001749      120.0172     
      7400  -5.5863848      343.58971      2.0950983      22.333459      19.333771      41.358463      22.333459      22.327498      41.358463      90.009208      90.001846      120.01237    
      7500  -5.5866174     -420.48039      2.0951261      22.333852      19.334351      41.355944      22.333852      22.325339      41.355945      90.009221      90.001986      119.99979    
      7600  -5.5868483     -193.4389       2.095535       22.330687      19.334984      41.352382      22.330687      22.323577      41.352383      90.00921       90.002116      119.98871    
      7700  -5.5870819      278.07065      2.0960388      22.327662      19.334914      41.348193      22.327662      22.323722      41.348193      90.009272      90.002121      119.98971    
      7800  -5.5873089     -14.24155       2.0962398      22.325103      19.33719       41.3441        22.325103      22.325663      41.344101      90.00931       90.00214       119.98666    
      7900  -5.5875365     -348.8211       2.0964225      22.325238      19.337491      41.339604      22.325238      22.327466      41.339605      90.009429      90.002078      119.99313    
      8000  -5.5877587      376.52996      2.0970017      22.323972      19.335749      41.334251      22.323972      22.328287      41.334252      90.009555      90.001972      120.00572    
      8100  -5.5879913      324.19553      2.0972885      22.325123      19.33464       41.328839      22.325123      22.32786       41.32884       90.009669      90.001959      120.00952    
      8200  -5.5882445     -489.44827      2.0973102      22.331604      19.331632      41.322846      22.331604      22.325546      41.322847      90.009855      90.001952      120.01467    
      8300  -5.5884888     -27.659514      2.0978056      22.330602      19.331209      41.315848      22.330602      22.325974      41.315849      90.009961      90.001934      120.01874    
      8400  -5.5887372     -369.30993      2.0979954      22.331689      19.331871      41.308683      22.331689      22.324159      41.308684      90.009998      90.002082      120.00728    
      8500  -5.5889875      290.71119      2.0985687      22.324485      19.336733      41.300336      22.324485      22.329392      41.300337      90.010005      90.002074      120.00558    
      8600  -5.5892395      191.31107      2.0988502      22.332788      19.330899      41.291903      22.332788      22.32534       41.291904      90.010266      90.002035      120.01751    
      8700  -5.589575      -330.2496       2.0990665      22.332272      19.334781      41.280312      22.332272      22.328118      41.280313      90.010342      90.002115      120.00994    
      8800  -5.5898753     -89.197961      2.0995275      22.328842      19.338946      41.268698      22.328842      22.327945      41.268699      90.010291      90.002373      119.98779    
      8900  -5.5902596      107.6248       2.1000648      22.333817      19.336989      41.253124      22.333817      22.332769      41.253125      90.010691      90.002072      120.01927    
      9000  -5.5905789      302.79543      2.1005182      22.333996      19.339144      41.23929       22.333996      22.335355      41.239291      90.010826      90.002092      120.0197     
      9100  -5.5908819     -321.3045       2.1006324      22.34117       19.337987      41.226275      22.34117       22.332113      41.226276      90.01098       90.002261      120.01123    
      9200  -5.5930603     -545.02615      2.1013472      22.330071      19.34949       41.208221      22.330071      22.327247      41.208223      90.008421      90.008565      119.9305     
      9292  -5.5943914     -3201.6314      2.1004998      22.356346      19.3603        41.153405      22.356346      22.359921      41.15341       90.022728      90.001751      120.02028    
Loop time of 145.928 on 1 procs for 9292 steps with 1125 atoms

104.6% CPU use with 1 MPI tasks x 1 OpenMP threads

Minimization stats:
  Stopping criterion = linesearch alpha is zero
  Energy initial, next-to-last, final = 
     -2.82829061096698  -5.59438938330144  -5.59438938330144
  Force two-norm initial, final = 25538.324 64.668633
  Force max component initial, final = 15184.158 37.181995
  Final line search alpha, max atom move = 2.1037383e-08 7.8221186e-07
  Iterations, force evaluations = 9292 16976

MPI task timing breakdown:
Section |  min time  |  avg time  |  max time  |%varavg| %total
---------------------------------------------------------------
Pair    | 144.56     | 144.56     | 144.56     |   0.0 | 99.06
Bond    | 0.0012706  | 0.0012706  | 0.0012706  |   0.0 |  0.00
Neigh   | 0.31254    | 0.31254    | 0.31254    |   0.0 |  0.21
Comm    | 0.1946     | 0.1946     | 0.1946     |   0.0 |  0.13
Output  | 0.0080621  | 0.0080621  | 0.0080621  |   0.0 |  0.01
Modify  | 0          | 0          | 0          |   0.0 |  0.00
Other   |            | 0.8548     |            |       |  0.59

Nlocal:           1125 ave        1125 max        1125 min
Histogram: 1 0 0 0 0 0 0 0 0 0
Nghost:           2419 ave        2419 max        2419 min
Histogram: 1 0 0 0 0 0 0 0 0 0
Neighs:              0 ave           0 max           0 min
Histogram: 1 0 0 0 0 0 0 0 0 0
FullNghs:        51750 ave       51750 max       51750 min
Histogram: 1 0 0 0 0 0 0 0 0 0

Total # of neighbors = 51750
Ave neighs/atom = 46
Ave special neighs/atom = 0
Neighbor list builds = 23
Dangerous builds = 0
unfix boxrelax
min_style cg
minimize 1e-08 1e-10 5000 100000
Per MPI rank memory allocation (min/avg/max) = 7.214 | 7.214 | 7.214 Mbytes
   Step         PotEng         Press         Density           Lx             Ly             Lz           Cella          Cellb          Cellc        CellAlpha       CellBeta      CellGamma   
      9292  -5.5943914     -3201.6314      2.1004998      22.356346      19.3603        41.153405      22.356346      22.359921      41.15341       90.022728      90.001751      120.02028    
      9300  -5.6121352     -76528.245      2.1004998      22.356346      19.3603        41.153405      22.356346      22.359921      41.15341       90.022728      90.001751      120.02028    
      9395  -5.6140831     -73884.254      2.1004998      22.356346      19.3603        41.153405      22.356346      22.359921      41.15341       90.022728      90.001751      120.02028    
Loop time of 2.11888 on 1 procs for 103 steps with 1125 atoms

100.0% CPU use with 1 MPI tasks x 1 OpenMP threads

Minimization stats:
  Stopping criterion = energy tolerance
  Energy initial, next-to-last, final = 
     -5.59439142051749  -5.61408300900951  -5.61408306069773
  Force two-norm initial, final = 6.1374892 3.2650001
  Force max component initial, final = 0.21198261 0.28293627
  Final line search alpha, max atom move = 0.4869634 0.13777961
  Iterations, force evaluations = 103 213

MPI task timing breakdown:
Section |  min time  |  avg time  |  max time  |%varavg| %total
---------------------------------------------------------------
Pair    | 2.1113     | 2.1113     | 2.1113     |   0.0 | 99.64
Bond    | 1.462e-05  | 1.462e-05  | 1.462e-05  |   0.0 |  0.00
Neigh   | 0          | 0          | 0          |   0.0 |  0.00
Comm    | 0.0029403  | 0.0029403  | 0.0029403  |   0.0 |  0.14
Output  | 3.277e-05  | 3.277e-05  | 3.277e-05  |   0.0 |  0.00
Modify  | 0          | 0          | 0          |   0.0 |  0.00
Other   |            | 0.004567   |            |       |  0.22

Nlocal:           1125 ave        1125 max        1125 min
Histogram: 1 0 0 0 0 0 0 0 0 0
Nghost:           2419 ave        2419 max        2419 min
Histogram: 1 0 0 0 0 0 0 0 0 0
Neighs:              0 ave           0 max           0 min
Histogram: 1 0 0 0 0 0 0 0 0 0
FullNghs:        50250 ave       50250 max       50250 min
Histogram: 1 0 0 0 0 0 0 0 0 0

Total # of neighbors = 50250
Ave neighs/atom = 44.666667
Ave special neighs/atom = 0
Neighbor list builds = 0
Dangerous builds = 0
print "FINAL_QT_TRI: density=$(density) lx=$(lx) ly=$(ly) lz=$(lz) pe=$(pe)"
FINAL_QT_TRI: density=2.1004997831641514239 lx=22.356346378804754949 ly=19.36030018860517643 lz=41.153405101309147085 pe=-5.614083060697725891
Total wall time: 0:02:28
