LAMMPS (29 Aug 2024)
OMP_NUM_THREADS environment is not set. Defaulting to 1 thread. (src/comm.cpp:98)
  using 1 OpenMP thread(s) per MPI task
clear
OMP_NUM_THREADS environment is not set. Defaulting to 1 thread. (src/comm.cpp:98)
  using 1 OpenMP thread(s) per MPI task
units metal
boundary p p p
box tilt large

The 'box' command has been removed and will be ignored

atom_style full
read_data quartz.data
Reading data file ...
  triclinic box = (-0.828 -0.60219 -0.612) to (4.0879912 3.6551824 4.7929904) with tilt (-2.4579956 0 0)
WARNING: Triclinic box skew is large. LAMMPS will run inefficiently. (src/domain.cpp:221)
  1 by 1 by 1 MPI processor grid
  reading atoms ...
  9 atoms
Finding 1-2 1-3 1-4 neighbors ...
  special bond factors lj:    0        0        0       
  special bond factors coul:  0        0        0       
     0 = max # of 1-2 neighbors
     0 = max # of 1-3 neighbors
     0 = max # of 1-4 neighbors
     1 = max # of special neighbors
  special bonds CPU = 0.000 seconds
  read_data CPU = 0.001 seconds
replicate 5 5 5
Replication is creating a 5x5x5 = 125 times larger system...
  triclinic box = (-0.828 -0.60219 -0.612) to (23.751956 20.684672 26.412952) with tilt (-12.289978 0 0)
WARNING: Triclinic box skew is large. LAMMPS will run inefficiently. (src/domain.cpp:221)
  1 by 1 by 1 MPI processor grid
  1125 atoms
Finding 1-2 1-3 1-4 neighbors ...
  special bond factors lj:    0        0        0       
  special bond factors coul:  0        0        0       
     0 = max # of 1-2 neighbors
     0 = max # of 1-3 neighbors
     0 = max # of 1-4 neighbors
     1 = max # of special neighbors
  special bonds CPU = 0.000 seconds
  replicate CPU = 0.003 seconds
mass 1 28.0855
mass 2 15.9994
pair_style tersoff
pair_coeff * * ML-Tersoff.tersoff Si O
neighbor 2.0 nsq
neigh_modify delay 0 every 1 check yes
thermo 200
thermo_style custom step temp pe press density lx ly lz cellalpha cellbeta cellgamma
thermo_modify norm yes flush yes
timestep 0.001
velocity all create 298 12345 dist gaussian
fix 1 all npt temp 298 298 0.1 tri 1.0 1.0 1.0
run 20000

CITE-CITE-CITE-CITE-CITE-CITE-CITE-CITE-CITE-CITE-CITE-CITE-CITE

Your simulation uses code contributions which should be cited:

- Type Label Framework: https://doi.org/10.1021/acs.jpcb.3c08419

@Article{Gissinger24,
 author = {Jacob R. Gissinger, Ilia Nikiforov, Yaser Afshar, Brendon Waters, Moon-ki Choi, Daniel S. Karls, Alexander Stukowski, Wonpil Im, Hendrik Heinz, Axel Kohlmeyer, and Ellad B. Tadmor},
 title = {Type Label Framework for Bonded Force Fields in LAMMPS},
 journal = {J. Phys. Chem. B},
 year =    2024,
 volume =  128,
 number =  13,
 pages =   {3282–-3297}
}

CITE-CITE-CITE-CITE-CITE-CITE-CITE-CITE-CITE-CITE-CITE-CITE-CITE

Neighbor list info ...
  update: every = 1 steps, delay = 0 steps, check = yes
  max neighbors/atom: 2000, page size: 100000
  master list distance cutoff = 5.65153
  ghost atom cutoff = 5.65153
  1 neighbor lists, perpetual/occasional/extra = 1 0 0
  (1) pair tersoff, perpetual
      attributes: full, newton on
      pair build: full/nsq
      stencil: none
      bin: none
Per MPI rank memory allocation (min/avg/max) = 6.105 | 6.105 | 6.105 Mbytes
   Step          Temp          PotEng         Press         Density           Lx             Ly             Lz         CellAlpha       CellBeta      CellGamma   
         0   298           -0.12544045     2479771.1      2.6459623      24.579956      21.286862      27.024952      90             90             120.00001    
       200   2144.2372     -4.4713157      12629.797      1.9700058      27.341034      23.646937      29.375415      90.066763      89.763878      120.12856    
       400   885.66057     -4.9078092     -6670.6632      1.9152259      27.708001      23.772324      29.65818       90.100075      89.563397      120.04868    
       600   429.28155     -5.0320315      3059.4655      1.9126145      27.747117      23.695811      29.752567      89.862079      89.906559      120.00871    
       800   275.1258      -5.0700892      5405.3115      1.9137241      27.657262      23.678831      29.853316      89.67854       89.841807      120.20525    
      1000   261.24976     -5.0796641     -3215.6169      1.9009456      27.572387      23.770878      30.029773      89.698386      89.689422      119.87126    
      1200   326.61244     -5.0829382      7304.6364      1.8971048      27.599336      23.820591      29.998452      89.570097      89.747427      119.86095    
      1400   280.47894     -5.0909635     -3398.2699      1.8949414      27.532737      23.883627      30.02589       89.681184      89.769418      119.79912    
      1600   289.87431     -5.0948907     -1878.2587      1.8913431      27.609033      23.90116       29.977875      89.586883      89.735376      120.0255     
      1800   310.93789     -5.0971351     -1177.8134      1.8884882      27.558263      23.979867      29.979781      89.524403      89.923937      119.70024    
      2000   275.17721     -5.1033        -2701.2068      1.8866098      27.624675      23.993122      29.920945      89.365152      89.780092      119.86045    
      2200   302.5416      -5.1040459      7354.7806      1.8888028      27.661966      24.016425      29.816958      89.423392      89.913901      119.69164    
      2400   329.84239     -5.1059142     -764.29956      1.8833347      27.634521      24.084518      29.848598      89.579116      89.742137      119.62221    
      2600   281.07208     -5.1122518     -843.94597      1.8806514      27.603945      24.135322      29.861305      89.577421      89.958167      119.5153     
      2800   284.00518     -5.1107022      1382.5453      1.8826705      27.610154      24.091509      29.876808      89.513422      89.92511       119.71306    
      3000   319.98456     -5.1074892     -2637.5551      1.8826351      27.618632      24.087445      29.873237      89.563172      89.953575      119.62417    
      3200   284.34285     -5.1130555     -2104.2586      1.8795237      27.654371      24.115991      29.848646      89.38761       89.94547       119.56623    
      3400   291.43557     -5.1163931      2354.5508      1.8802706      27.669045      24.110632      29.827593      89.621592      89.932549      119.71657    
      3600   318.04197     -5.1185937     -811.27939      1.8744915      27.703001      24.184244      29.791923      89.590962      89.915211      119.73151    
      3800   288.14553     -5.1221918     -2622.0083      1.877076       27.661523      24.129378      29.863262      89.756936      89.860516      119.80432    
      4000   285.7651      -5.1198409     -1752.1015      1.8730114      27.676254      24.204809      29.818922      89.572128      89.793788      119.609      
      4200   312.8552      -5.1181464     -2693.2439      1.8730593      27.714982      24.183863      29.802283      89.660235      89.963775      119.97766    
      4400   291.45707     -5.1212106      214.63707      1.8742319      27.728993      24.157749      29.800768      89.764619      89.645942      119.65907    
      4600   282.72988     -5.1207203     -4359.3543      1.8734759      27.687625      24.169456      29.842873      89.613597      89.885631      119.79272    
      4800   306.88193     -5.117817       3478.0453      1.8745863      27.714809      24.189961      29.770686      89.827333      89.717226      119.77158    
      5000   302.01189     -5.1211613      1901.1591      1.875071       27.747381      24.129453      29.8026        89.555756      89.798186      119.96398    
      5200   288.25046     -5.1221262     -3779.6977      1.8725695      27.721246      24.194468      29.790279      89.588031      89.895834      119.67055    
      5400   305.34858     -5.1189527      729.78821      1.8763842      27.742457      24.133814      29.781645      89.700623      89.710216      119.89667    
      5600   307.31342     -5.1208577     -3370.5428      1.8727587      27.734739      24.163203      29.811301      89.762417      89.713958      119.70815    
      5800   282.46417     -5.1217173      4864.8401      1.8740525      27.737306      24.161382      29.790207      89.589524      89.888282      119.83546    
      6000   301.59458     -5.1193846     -2348.7493      1.8749467      27.727967      24.199742      29.738814      89.675615      89.722132      119.78875    
      6200   300.60046     -5.1192872      7385.8955      1.8776287      27.693086      24.131928      29.817295      89.756957      89.72909       119.70974    
      6400   282.20487     -5.1213497      460.34514      1.8752223      27.707335      24.204488      29.750749      89.558509      89.832834      119.75755    
      6600   301.72967     -5.1205806     -1382.6387      1.8713592      27.711085      24.226076      29.781569      89.700494      89.834244      119.7511     
      6800   315.48068     -5.1205713      6838.628       1.8775672      27.683287      24.144283      29.813563      89.657739      89.852197      119.8711     
      7000   295.68909     -5.1226777      3678.2693      1.8763755      27.720373      24.152182      29.782841      89.567969      89.758108      119.88019    
      7200   300.30947     -5.1217981      3973.2133      1.8767826      27.674525      24.180636      29.790616      89.777766      89.779187      119.72491    
      7400   311.84822     -5.1198754      2433.277       1.8731437      27.746284      24.177357      29.77533       89.52293       89.817892      119.81918    
      7600   297.27048     -5.1216012     -406.50335      1.8754859      27.668301      24.177557      29.821714      89.54309       89.95172       119.8287     
      7800   284.02991     -5.1209737     -10766.11       1.8702309      27.720535      24.216589      29.801047      89.663491      89.695485      119.72643    
      8000   309.73402     -5.1192563      2235.3061      1.8733057      27.742905      24.167861      29.788081      89.614121      89.826386      119.95582    
      8200   295.61328     -5.1201367      3743.0121      1.8732006      27.722776      24.182519      29.793312      89.752492      89.777965      119.77211    
      8400   282.21937     -5.1212458      3019.9061      1.8739914      27.742507      24.180391      29.762178      89.659316      89.742213      119.97317    
      8600   299.07584     -5.1190206      6111.246       1.8751086      27.683121      24.171215      29.819569      89.534486      89.956561      119.72377    
      8800   304.25905     -5.1214868      2285.231       1.8716032      27.718027      24.232499      29.762338      89.810514      89.656238      119.927      
      9000   292.57308     -5.1241        -2541.4326      1.8736231      27.690523      24.226305      29.767391      89.503708      89.772099      119.744      
      9200   302.91946     -5.1211046      2338.9421      1.8707832      27.718139      24.210279      29.802589      89.800626      89.79245       119.87421    
      9400   297.2472      -5.1195266      1216.2288      1.8726066      27.750018      24.204694      29.746229      89.597725      89.723035      119.98569    
      9600   287.86926     -5.1233652     -938.53485      1.8729889      27.673168      24.231089      29.790262      89.831593      89.644694      119.80592    
      9800   300.10633     -5.1219286     -155.08487      1.8726731      27.732593      24.188307      29.784026      89.72458       89.742922      119.86297    
     10000   316.65382     -5.1215526      2592.3314      1.8736887      27.666019      24.21277       29.809365      89.714277      89.639104      119.89041    
     10200   286.66351     -5.1237796     -3705.1809      1.868187       27.741684      24.214544      29.813424      89.789831      89.734411      119.90072    
     10400   295.34421     -5.1254679     -2871.2148      1.867601       27.765466      24.241238      29.764423      89.497655      89.874257      119.79279    
     10600   302.55676     -5.1212169     -2549.7521      1.8692037      27.757927      24.213949      29.780503      89.655503      89.72848       119.93563    
     10800   291.56374     -5.1228469     -1239.5217      1.8701399      27.723572      24.213203      29.803399      89.689019      89.855289      119.7551     
     11000   287.33681     -5.125047       6618.0151      1.8715911      27.696456      24.235527      29.781989      89.54818       89.77249       119.7643     
     11200   305.06993     -5.1256964      1847.1551      1.8662197      27.738826      24.251019      29.803035      89.551254      89.56269       119.69854    
     11400   294.41336     -5.1285317     -9326.8521      1.8651299      27.749423      24.26588       29.790804      89.666042      89.710535      119.89186    
     11600   298.93926     -5.1276082      3352.3457      1.8696638      27.732699      24.209341      29.805932      89.54313       89.737311      119.68678    
     11800   303.80432     -5.1258612      438.67476      1.8650594      27.765218      24.253571      29.790094      89.566823      89.677006      119.85274    
     12000   294.10762     -5.1289776      3706.5463      1.8661647      27.728417      24.214472      29.860102      89.728912      89.723039      119.83873    
     12200   295.56932     -5.1294042     -2861.3141      1.8681096      27.731202      24.209775      29.831805      89.517594      89.687549      119.90567    
     12400   309.71265     -5.1267115     -2860.1193      1.8641354      27.818545      24.200669      29.812754      89.695317      89.691091      119.83359    
     12600   299.95581     -5.1310178      702.41477      1.8604001      27.762785      24.315049      29.791805      89.752131      89.613539      119.76461    
     12800   282.52532     -5.1327076      1031.7398      1.8628596      27.765399      24.222275      29.863613      89.563087      89.629695      119.67932    
     13000   314.98611     -5.1304068      698.94194      1.8593258      27.825556      24.304884      29.754211      89.799335      89.658592      119.65192    
     13200   293.83123     -5.1330979     -3991.0414      1.8600566      27.790633      24.317437      29.764523      89.639681      89.801423      119.67759    
     13400   280.6611      -5.1356657     -1173.0558      1.8610117      27.840225      24.276336      29.746533      89.742933      89.570602      119.71859    
     13600   313.39674     -5.1328279     -4091.6808      1.860458       27.821906      24.312115      29.73116       89.6747        89.887476      119.82419    
     13800   305.18246     -5.1334457      3121.178       1.86216        27.81839       24.272286      29.756487      89.710202      89.85819       119.7108     
     14000   285.05089     -5.1397052      6912.248       1.8610602      27.760398      24.34088       29.75219       89.498237      89.852196      119.61558    
     14200   276.01259     -5.1389241      3045.9864      1.8594559      27.817495      24.311572      29.752564      89.674229      89.71849       119.77118    
     14400   309.73778     -5.1354228     -1701.95        1.8586308      27.835977      24.326928      29.727231      89.520626      89.795294      119.61945    
     14600   293.6283      -5.1386224      4429.7825      1.8587708      27.839883      24.265153      29.796487      89.642311      89.729973      119.75187    
     14800   285.99083     -5.1418392     -2682.1267      1.8559178      27.84877       24.355295      29.722353      89.603847      89.880193      119.54622    
     15000   312.24376     -5.1404959      898.1151       1.8570115      27.826803      24.281217      29.818993      89.839569      89.507577      119.68434    
     15200   296.26197     -5.1427157      8603.1738      1.8579458      27.787273      24.345399      29.767713      89.879644      89.749455      119.36159    
     15400   289.52195     -5.145095       1484.5373      1.8600385      27.769673      24.271752      29.843346      89.733217      89.512938      119.45602    
     15600   307.69224     -5.1425743     -3901.706       1.8534052      27.83612       24.319412      29.820107      90.029422      89.616368      119.69348    
     15800   299.82447     -5.1422889      4506.479       1.8554578      27.86393       24.300163      29.780961      89.748523      89.780839      119.66319    
     16000   288.6523      -5.1450159      7219.4363      1.8554599      27.843808      24.297764      29.80539       89.828158      89.693935      119.70216    
     16200   301.55919     -5.1439403      1842.6807      1.8519062      27.83862       24.395106      29.74897       89.768581      89.768396      119.5308     
     16400   324.04066     -5.1447412     -3361.0427      1.8533064      27.858799      24.303002      29.817538      89.890047      89.592033      119.76164    
     16600   292.84809     -5.1450741      563.77666      1.8549502      27.867475      24.29271       29.794458      89.813376      89.740316      119.75058    
     16800   304.1867      -5.1460933      2384.1268      1.8547968      27.881929      24.31167       29.75825       89.801501      89.748456      119.58471    
     17000   311.95965     -5.1449592      373.98635      1.851575       27.844824      24.302127      29.861475      89.746555      89.875228      119.68996    
     17200   301.14564     -5.1459389      2565.0501      1.8542924      27.868062      24.28791       29.810291      89.878936      89.72755       119.68661    
     17400   292.47107     -5.1453653      2255.2772      1.856308       27.852492      24.269819      29.816778      89.869188      89.58636       119.73483    
     17600   302.40225     -5.1443011     -1893.9493      1.8522942      27.859729      24.320101      29.811862      89.741132      89.880537      119.73522    
     17800   298.56978     -5.1451656     -416.16839      1.8542154      27.809401      24.334197      29.817588      89.838561      89.751064      119.48863    
     18000   302.62095     -5.1465848      3200.0069      1.8545157      27.842891      24.292836      29.827597      89.854827      89.623742      119.73459    
     18200   300.97262     -5.144536      -2816.7833      1.8529791      27.859432      24.326005      29.793928      89.809875      89.822555      119.74493    
     18400   298.53648     -5.1444674      4801.0219      1.8554857      27.8429        24.319627      29.779152      89.790599      89.59767       119.72262    
     18600   287.45686     -5.1445977     -6376.8666      1.8512387      27.821859      24.345282      29.838567      89.88612       89.663779      119.71327    
     18800   295.59856     -5.1445687     -1956.5001      1.8537043      27.837081      24.318097      29.815878      89.726605      89.776409      119.67406    
     19000   300.52535     -5.144292       1444.8596      1.8534598      27.862876      24.341431      29.763644      89.679737      89.69696       119.67228    
     19200   295.74488     -5.1456346     -1667.773       1.8549836      27.88778       24.302549      29.760176      89.833599      89.631837      119.8392     
     19400   303.02467     -5.1456665     -1039.9632      1.8505414      27.842261      24.345129      29.828124      89.824271      89.779499      119.58807    
     19600   296.70011     -5.144523      -4771.8939      1.8507952      27.915149      24.335154      29.758355      89.615547      89.942012      119.81828    
     19800   297.9283      -5.1488205      6013.9792      1.8541819      27.894722      24.30795       29.75902       89.862199      89.594826      119.74928    
     20000   285.83984     -5.1472611      4964.2123      1.8555367      27.852708      24.2517        29.851226      89.720615      89.82012       119.86701    
Loop time of 163.962 on 1 procs for 20000 steps with 1125 atoms

Performance: 10.539 ns/day, 2.277 hours/ns, 121.979 timesteps/s, 137.227 katom-step/s
105.9% CPU use with 1 MPI tasks x 1 OpenMP threads

MPI task timing breakdown:
Section |  min time  |  avg time  |  max time  |%varavg| %total
---------------------------------------------------------------
Pair    | 162.43     | 162.43     | 162.43     |   0.0 | 99.06
Bond    | 0.0010233  | 0.0010233  | 0.0010233  |   0.0 |  0.00
Neigh   | 0.56286    | 0.56286    | 0.56286    |   0.0 |  0.34
Comm    | 0.1554     | 0.1554     | 0.1554     |   0.0 |  0.09
Output  | 0.0050586  | 0.0050586  | 0.0050586  |   0.0 |  0.00
Modify  | 0.75114    | 0.75114    | 0.75114    |   0.0 |  0.46
Other   |            | 0.05896    |            |       |  0.04

Nlocal:           1125 ave        1125 max        1125 min
Histogram: 1 0 0 0 0 0 0 0 0 0
Nghost:           2153 ave        2153 max        2153 min
Histogram: 1 0 0 0 0 0 0 0 0 0
Neighs:              0 ave           0 max           0 min
Histogram: 1 0 0 0 0 0 0 0 0 0
FullNghs:        49268 ave       49268 max       49268 min
Histogram: 1 0 0 0 0 0 0 0 0 0

Total # of neighbors = 49268
Ave neighs/atom = 43.793778
Ave special neighs/atom = 0
Neighbor list builds = 73
Dangerous builds = 0
unfix 1
compute pe1 all pe/atom
compute pesum all reduce sum c_pe1
run 0
WARNING: No fixes with time integration, atoms won't move (src/verlet.cpp:60)
Per MPI rank memory allocation (min/avg/max) = 6.214 | 6.214 | 6.214 Mbytes
   Step          Temp          PotEng         Press         Density           Lx             Ly             Lz         CellAlpha       CellBeta      CellGamma   
     20000   285.83984     -5.1472611      4964.2123      1.8555367      27.852708      24.2517        29.851226      89.720615      89.82012       119.86701    
Loop time of 2.33e-06 on 1 procs for 0 steps with 1125 atoms

128.8% CPU use with 1 MPI tasks x 1 OpenMP threads

MPI task timing breakdown:
Section |  min time  |  avg time  |  max time  |%varavg| %total
---------------------------------------------------------------
Pair    | 0          | 0          | 0          |   0.0 |  0.00
Bond    | 0          | 0          | 0          |   0.0 |  0.00
Neigh   | 0          | 0          | 0          |   0.0 |  0.00
Comm    | 0          | 0          | 0          |   0.0 |  0.00
Output  | 0          | 0          | 0          |   0.0 |  0.00
Modify  | 0          | 0          | 0          |   0.0 |  0.00
Other   |            | 2.33e-06   |            |       |100.00

Nlocal:           1125 ave        1125 max        1125 min
Histogram: 1 0 0 0 0 0 0 0 0 0
Nghost:           2146 ave        2146 max        2146 min
Histogram: 1 0 0 0 0 0 0 0 0 0
Neighs:              0 ave           0 max           0 min
Histogram: 1 0 0 0 0 0 0 0 0 0
FullNghs:        49378 ave       49378 max       49378 min
Histogram: 1 0 0 0 0 0 0 0 0 0

Total # of neighbors = 49378
Ave neighs/atom = 43.891556
Ave special neighs/atom = 0
Neighbor list builds = 0
Dangerous builds = 0
variable pea equal c_pesum/count(all)
print "FINAL_MLT_NPT: density=$(density) lx=$(lx) ly=$(ly) lz=$(lz) pe_per_atom=${pea}"
FINAL_MLT_NPT: density=1.8555366894238476405 lx=27.852707563811009095 ly=24.251700316596426887 lz=29.851226151644603135 pe_per_atom=-5.14726114592596
write_data final.MLT.npt.data nocoeff nofix
System init for write_data ...
Total wall time: 0:02:44
