&CONTROL
  calculation = 'scf'
  restart_mode = 'from_scratch'
  prefix = 'lto'
  outdir = './tmp'
  pseudo_dir = '/home/stevens/projects/replicate-1981773/pseudo'
  verbosity = 'default'
  tprnfor = .true.
  tstress = .true.
  disk_io = 'low'
/
&SYSTEM
  ibrav = 0
  nat = 88
  ntyp = 4
  ecutwfc = 60.0
  ecutrho = 480.0
  occupations = 'smearing'
  smearing = 'gaussian'
  degauss = 0.01
  nosym = .true.
  noinv = .true.
/
&ELECTRONS
  conv_thr = 1.0d-5
  mixing_beta = 0.3
  electron_maxstep = 150
  diagonalization = 'david'
/
ATOMIC_SPECIES
  La  138.9055  La.upf
  O  15.999  O.upf
  Pt  195.084  Pt.upf
  Ti  47.867  Ti.upf
CELL_PARAMETERS angstrom
  7.7766722900  0.0000000000  0.0000000000
  -1.9471732778  12.9184064788  0.0000000000
  0.0000000000  -0.0000000000  30.7773005021
ATOMIC_POSITIONS angstrom
  La  0.0154792900  7.5026492843  11.7864438812
  La  5.8140197222  5.4157571946  14.5586740812
  La  3.8639563761  7.8818103277  11.5367755541
  La  5.8198491102  1.2676938209  11.3083360788
  La  1.9446631561  1.4831736160  11.2772964153
  La  1.9655426360  5.0365961511  14.3090057541
  La  3.8848358560  11.4352328628  14.0495266153
  La  0.0096499020  11.6507126580  14.0805662788
  La  0.0154792900  7.5026492843  17.3309042812
  La  5.8140197222  5.4157571946  20.1031344812
  La  3.8639563761  7.8818103277  17.0812359541
  La  5.8198491102  1.2676938209  16.8527964788
  La  1.9446631561  1.4831736160  16.8217568153
  La  1.9655426360  5.0365961511  19.8534661541
  La  3.8848358560  11.4352328628  19.5939870153
  La  0.0096499020  11.6507126580  19.6250266788
  O  5.7142134717  7.3596387782  13.0416309289
  O  0.1152855405  5.5587677006  10.2694007289
  O  0.0036968024  8.9847120465  13.8306670250
  O  5.9725189051  10.5178938475  15.1669947557
  O  3.7769411031  5.6770858354  10.3319361433
  O  3.8874070658  11.7228557573  10.9195111105
  O  5.4669022454  10.0011557798  12.4606099021
  O  5.9577271586  7.6463529920  10.1718557619
  O  2.1727961188  12.6713924659  12.7738907104
  O  3.6567028934  0.2470140129  10.0016605104
  O  1.8037249491  7.7966516755  10.2634188661
  O  -0.1430198930  2.4005126313  12.3947645557
  O  1.9420431965  3.9763330539  11.7071207832
  O  5.6003452453  12.7007110478  12.7722302000
  O  1.8161331239  10.5388308381  15.1374664567
  O  1.9420919463  1.1955507215  13.6917413105
  O  0.3625967668  2.9172506991  15.2328401021
  O  4.0257740630  5.1217548034  13.0356490661
  O  5.8268643508  1.3842713295  14.3200716100
  O  3.5117690099  2.9645869700  15.1986888320
  O  0.2291537668  0.2176954311  10.0000000000
  O  3.8874558157  8.9420734249  14.4793509832
  O  4.0133658883  2.3795756408  12.3652362567
  O  -0.1282281464  5.2720534868  12.9440859619
  O  2.0525579091  7.2413206435  13.1041663433
  O  0.0026346614  11.5341351493  11.5478414100
  O  5.8258022098  3.9336944323  11.0584368250
  O  2.3177300023  9.9538195088  12.4264586320
  O  5.7142134717  7.3596387782  18.5860913289
  O  0.1152855405  5.5587677006  15.8138611289
  O  0.0036968024  8.9847120465  19.3751274250
  O  5.9725189051  10.5178938475  20.7114551557
  O  3.7769411031  5.6770858354  15.8763965433
  O  3.8874070658  11.7228557573  16.4639715105
  O  5.4669022454  10.0011557798  18.0050703021
  O  5.9577271586  7.6463529920  15.7163161619
  O  2.1727961188  12.6713924659  18.3183511104
  O  3.6567028934  0.2470140129  15.5461209104
  O  1.8037249491  7.7966516755  15.8078792661
  O  -0.1430198930  2.4005126313  17.9392249557
  O  1.9420431965  3.9763330539  17.2515811832
  O  5.6003452453  12.7007110478  18.3166906000
  O  1.8161331239  10.5388308381  20.6819268567
  O  1.9420919463  1.1955507215  19.2362017105
  O  0.3625967668  2.9172506991  20.7773005021
  O  4.0257740630  5.1217548034  18.5801094661
  O  5.8268643508  1.3842713295  19.8645320100
  O  3.5117690099  2.9645869700  20.7431492320
  O  0.2291537668  0.2176954311  15.5444604000
  O  3.8874558157  8.9420734249  20.0238113832
  O  4.0133658883  2.3795756408  17.9096966567
  O  -0.1282281464  5.2720534868  18.4885463619
  O  2.0525579091  7.2413206435  18.6486267433
  O  0.0026346614  11.5341351493  17.0923018100
  O  5.8258022098  3.9336944323  16.6028972250
  O  2.3177300023  9.9538195088  17.9709190320
  Ti  1.9362611547  8.7144008502  14.2834042637
  Ti  0.0083523899  1.5252546792  14.1107460520
  Ti  1.9701200449  11.3642748981  11.3323350539
  Ti  5.8601706100  8.7623216790  14.2603893194
  Ti  5.8211466223  11.3931517996  11.3385158520
  Ti  3.8593789672  1.5541315808  14.1045652539
  Ti  3.8932378575  4.2040056287  11.5111740637
  Ti  -0.0306715979  4.1560847998  11.4881591194
  Pt  1.9362611547  8.7144008502  19.8278646637
  Ti  0.0083523899  1.5252546792  19.6552064520
  Ti  1.9701200449  11.3642748981  16.8767954539
  Ti  5.8601706100  8.7623216790  19.8048497194
  Ti  5.8211466223  11.3931517996  16.8829762520
  Ti  3.8593789672  1.5541315808  19.6490256539
  Ti  3.8932378575  4.2040056287  17.0556344637
  Ti  -0.0306715979  4.1560847998  17.0326195194
K_POINTS automatic
  3 2 1  0 0 0
