&CONTROL
  calculation = 'scf'
  restart_mode = 'from_scratch'
  prefix = 'lto'
  outdir = './tmp'
  pseudo_dir = '/home/stevens/projects/replicate-1981773/pseudo'
  verbosity = 'default'
  tprnfor = .true.
  tstress = .true.
  disk_io = 'low'
/
&SYSTEM
  ibrav = 0
  nat = 88
  ntyp = 4
  ecutwfc = 60.0
  ecutrho = 480.0
  occupations = 'smearing'
  smearing = 'gaussian'
  degauss = 0.01
  nosym = .true.
  noinv = .true.
/
&ELECTRONS
  conv_thr = 1.0d-5
  mixing_beta = 0.3
  electron_maxstep = 150
  diagonalization = 'david'
/
ATOMIC_SPECIES
  La  138.9055  La.upf
  O  15.999  O.upf
  Pt  195.084  Pt.upf
  Ti  47.867  Ti.upf
CELL_PARAMETERS angstrom
  14.1921721683  0.0000000000  0.0000000000
  1.0669634143  7.7031305960  0.0000000000
  0.0000000000  0.0000000000  29.8187571329
ATOMIC_POSITIONS angstrom
  La  8.1152778881  0.8573399027  14.5148187868
  La  9.7274033920  6.4879428412  11.1442384321
  La  8.2006220549  4.7307373012  14.4349299933
  La  14.4002180669  5.8465946259  11.6164002584
  La  13.6602740908  2.0369022274  11.6728619459
  La  9.4469832161  2.6415654915  10.7652673758
  La  3.7845895854  5.3634823771  13.0504445011
  La  3.0688981597  1.5504307491  13.1639532940
  La  10.2813339902  0.5573186859  19.6098388417
  La  11.8934594941  6.1879216244  16.2392584869
  La  10.3666781570  4.4307160844  19.5299500481
  La  2.3741020007  5.5465734091  16.7114203132
  La  1.6341580246  1.7368810106  16.7678820007
  La  11.6130393183  2.3415442747  15.8602874306
  La  5.9506456875  5.0634611604  18.1454645559
  La  5.2349542619  1.2504095323  18.2589733488
  O  7.3516304806  6.7162529098  10.5168355226
  O  9.3057233410  0.7932099705  12.3540819218
  O  5.3971768014  1.2219300957  11.8828404090
  O  5.3425890597  7.2552974383  13.7155308412
  O  9.7248361565  4.4317718460  12.4582128208
  O  2.3003298371  5.5716634906  10.2875901393
  O  4.6862741289  6.8357600817  11.0247271451
  O  8.1689795661  6.8488801004  13.0877877882
  O  1.9261310846  3.8925135788  12.3657545108
  O  14.5220264250  3.6459251586  10.0130891575
  O  7.4980101426  2.7481559008  13.2312064888
  O  12.9753978819  0.0241505458  13.0615453779
  O  11.5584390785  2.3253831853  13.0511464420
  O  2.3690566636  7.2914356924  12.3757918532
  O  4.7417371067  3.1424549146  13.6966536900
  O  0.6728094740  1.8674419901  13.7781506757
  O  11.5171043553  0.7365830873  10.7783447128
  O  11.3207259086  4.4619331425  14.7237370781
  O  1.2794895405  5.7052707932  14.4299792132
  O  11.8927427298  3.8637906319  10.7656312112
  O  14.0778034217  0.2471827517  10.0000000000
  O  6.2222638419  5.0284842036  12.4621246243
  O  13.5531781750  4.1401887335  13.0261531268
  O  10.5782145112  0.3711182477  14.6988739916
  O  6.9813791255  3.0709232156  10.5276370670
  O  2.1845897652  1.6658344107  10.7905558455
  O  11.8766829838  6.2021403198  12.4382288784
  O  4.2839519793  3.7122485165  10.9746747890
  O  9.5176865827  6.4162316930  15.6118555774
  O  11.4717794431  0.4931887537  17.4491019766
  O  7.5632329035  0.9219088789  16.9778604638
  O  7.5086451618  6.9552762215  18.8105508961
  O  11.8908922586  4.1317506293  17.5532328756
  O  4.4663859392  5.2716422739  15.3826101941
  O  6.8523302310  6.5357388649  16.1197471999
  O  10.3350356682  6.5488588836  18.1828078431
  O  4.0921871867  3.5924923620  17.4607745657
  O  2.4959103588  3.3459039418  15.1081092123
  O  9.6640662447  2.4481346840  18.3262265436
  O  2.0162452300  7.4272599250  18.1565654328
  O  13.7244951806  2.0253619685  18.1461664969
  O  4.5351127657  6.9914144756  17.4708119080
  O  6.9077932088  2.8424336979  18.7916737449
  O  2.8388655761  1.5674207734  18.8731707306
  O  13.6831604574  0.4365618705  15.8733647676
  O  13.4867820108  4.1619119257  19.8187571329
  O  3.4455456426  5.4052495765  19.5249992681
  O  14.0587988319  3.5637694151  15.8606512660
  O  3.1186507698  7.6502921308  15.0950200548
  O  8.3883199440  4.7284629869  17.5571446792
  O  1.5270621088  3.8401675167  18.1211731817
  O  12.7442706133  0.0710970309  19.7938940465
  O  9.1474352276  2.7709019989  15.6226571219
  O  4.3506458673  1.3658131939  15.8855759003
  O  14.0427390859  5.9021191030  17.5332489332
  O  6.4500080814  3.4122272997  16.0696948438
  Ti  6.0852470383  3.0776397581  12.1922674985
  Ti  1.3380429438  7.6740154020  14.2932256651
  Ti  2.5249529047  3.6049595313  10.5255257926
  Ti  6.5709982934  6.9717291467  12.1900181491
  Ti  3.0294452120  7.4228743999  10.5425946193
  Ti  0.7707425280  3.7894685840  14.2989349408
  Ti  11.5423547480  4.2974337244  12.9608774622
  Ti  11.0386209817  0.4058351000  12.9208281590
  Ti  8.2513031404  2.7776185413  17.2872875534
  Ti  3.5040990459  7.3739941852  19.3882457199
  Ti  4.6910090069  3.3049383145  15.6205458474
  Ti  8.7370543955  6.6717079299  17.2850382039
  Ti  5.1955013141  7.1228531832  15.6376146741
  Pt  2.9367986301  3.4894473672  19.3939549956
  Ti  13.7084108501  3.9974125077  18.0558975170
  Ti  13.2046770839  0.1058138833  18.0158482138
K_POINTS automatic
  2 3 1  0 0 0
