&CONTROL
  calculation = 'scf'
  restart_mode = 'from_scratch'
  prefix = 'lto'
  outdir = './tmp'
  pseudo_dir = '/home/stevens/projects/replicate-1981773/pseudo'
  verbosity = 'default'
  tprnfor = .true.
  tstress = .true.
  disk_io = 'low'
/
&SYSTEM
  ibrav = 0
  nat = 88
  ntyp = 4
  ecutwfc = 60.0
  ecutrho = 480.0
  occupations = 'smearing'
  smearing = 'gaussian'
  degauss = 0.01
  nosym = .true.
  noinv = .true.
/
&ELECTRONS
  conv_thr = 1.0d-5
  mixing_beta = 0.3
  electron_maxstep = 150
  diagonalization = 'david'
/
ATOMIC_SPECIES
  La  138.9055  La.upf
  O  15.999  O.upf
  Pt  195.084  Pt.upf
  Ti  47.867  Ti.upf
CELL_PARAMETERS angstrom
  9.5507943666  0.0000000000  0.0000000000
  -1.5854731965  12.9677671351  0.0000000000
  0.0000000000  -0.0000000000  28.8839205639
ATOMIC_POSITIONS angstrom
  La  -0.4832167118  5.6307650776  12.1624099969
  La  2.7368090355  7.8063762695  13.0851963485
  La  5.7890418529  5.4300724412  14.2185711566
  La  0.8451649599  11.7082483562  10.0904947317
  La  7.2011801602  11.6888138322  12.3403833979
  La  5.7254681843  7.9716278267  10.6240011778
  La  4.0120624107  1.6760526856  12.0812389602
  La  0.8533217515  1.6610243240  14.3814829101
  La  2.7354727445  6.0242904863  16.6597666720
  La  5.9554984918  8.1999016782  17.5825530237
  La  -0.5430630574  5.8235978498  18.7159278318
  La  4.0638544163  12.1017737649  14.5878514068
  La  0.8690752500  12.0823392408  16.8377400730
  La  -0.6066367260  8.3651532353  15.1213578530
  La  7.2307518670  2.0695780943  16.5785956354
  La  4.0720112078  2.0545497326  18.8788395852
  O  1.9373964540  5.7571692278  11.9663814178
  O  8.1056318906  7.4646238318  10.8201435400
  O  0.7130966393  4.2988388638  13.9429447612
  O  2.9608965412  2.7748573962  14.1150395773
  O  5.1604559041  7.5364865134  12.9987682167
  O  5.4116107771  1.5610231331  14.0662604373
  O  1.8014716645  3.0719534226  11.5823229885
  O  3.2918346001  5.6737082877  14.3017564693
  O  4.6655430517  0.2674235808  10.1641722726
  O  5.0666263252  12.9163630467  12.1880008558
  O  6.7273584550  5.3202742270  11.9868119647
  O  -0.0010153453  10.7486366796  12.1194382935
  O  7.4528365840  9.2355191590  12.9048425416
  O  1.8737194687  0.4115440936  12.1475798733
  O  6.3280648009  2.5415773854  11.6892177810
  O  -0.9458786582  12.1465802231  14.2722876747
  O  7.5669639811  10.0673621656  10.2616183436
  O  3.3087246659  7.9006696913  10.7900086868
  O  2.5878360427  11.8062314959  12.5476653078
  O  4.9829453187  10.1771407039  12.0592526427
  O  7.8565219776  12.7720068201  10.2018994285
  O  4.2594522642  4.1903620646  12.2140788685
  O  2.9296375632  10.5841996615  10.0000000000
  O  0.3058345464  7.9277634145  12.8238791029
  O  8.1738684498  6.0877090223  14.3865638887
  O  8.9395219728  1.5970395995  12.3128590353
  O  0.6952453023  9.0349599564  10.1236242398
  O  7.5645285547  3.3508524298  14.2266421578
  O  5.1560859103  6.1506946364  16.4637380930
  O  1.7735269803  7.8581492404  15.3175002152
  O  3.9317860956  4.6923642724  18.4403014364
  O  6.1795859975  3.1683828048  18.6123962525
  O  8.3791453604  7.9300119220  17.4961248919
  O  8.6303002334  1.9545485417  18.5636171125
  O  5.0201611208  3.4654788313  16.0796796636
  O  6.5105240564  6.0672336963  18.7991131445
  O  7.8842325080  0.6609489894  14.6615289478
  O  0.3199946114  0.3421213203  16.6853575310
  O  0.3952535447  5.7137996356  16.4841686399
  O  3.2176741110  11.1421620882  16.6167949687
  O  1.1207316738  9.6290445676  17.4021992168
  O  5.0924089250  0.8050695022  16.6449365485
  O  -0.0040401093  2.9351027941  16.1865744561
  O  2.2728107981  12.5401056317  18.7696443498
  O  1.2348590708  10.4608875742  14.7589750188
  O  6.5274141222  8.2941951000  15.2873653620
  O  5.8065254990  12.1997569045  17.0450219829
  O  8.2016347750  10.5706661125  16.5566093179
  O  3.1098902638  0.1977650936  14.6992561036
  O  7.4781417205  4.5838874733  16.7114355436
  O  6.1483270195  10.9777250702  14.4973566752
  O  3.5245240027  8.3212888231  17.3212357781
  O  1.8417635395  6.4812344309  18.8839205639
  O  2.6074170625  1.9905650081  16.8102157105
  O  3.9139347586  9.4284853650  14.6209809149
  O  1.2324236444  3.7443778384  18.7239988330
  Ti  5.7344481740  4.3045235256  10.9068892302
  Ti  0.8718983094  11.7500170353  13.5225924836
  Ti  7.2124032760  1.8505187296  13.2610697538
  Ti  2.5260696663  4.4537144188  13.1616488485
  Ti  0.8616285361  1.6235397435  10.9983454517
  Ti  4.0647417392  11.5221606686  11.2498411449
  Ti  5.7503373305  9.0935425430  13.8941501053
  Ti  -0.6187999596  8.9410846176  11.6020536118
  Ti  8.9531376303  4.6980489342  15.4042459053
  Ti  4.0905877657  12.1435424439  18.0199491588
  Ti  0.8802983657  2.2440441382  17.7584264289
  Ti  5.7447591226  4.8472398274  17.6590055236
  Ti  4.0803179924  2.0170651522  15.4957021269
  Ti  7.2834311955  11.9156860772  15.7471978201
  Pt  -0.5817675798  9.4870679517  18.3915067805
  Ti  2.5998894967  9.3346100262  16.0994102869
K_POINTS automatic
  2 2 1  0 0 0
